[TITLE]


[JUNCTIONS]
;ID              	Elev        	Demand      	Pattern         
 O-AV-2          	875         	0           	                	;
 J-1             	902.2       	0           	                	;
 J-10            	884         	7.13194     	2               	;
 J-100           	813.2       	0.4213      	11              	;
 J-101           	806.2       	0.18056     	11              	;
 J-102           	870.7       	2.06481     	2               	;
 J-103           	863.1       	0           	                	;
 J-104           	854.9       	0           	                	;
 J-105           	857.2       	0.06019     	11              	;
 J-106           	825.9       	0.15509     	2               	;
 J-107           	873.4       	0           	                	;
 J-108           	843.5       	0.22917     	11              	;
 J-109           	854.2       	0.90509     	11              	;
 J-11            	783.8       	0           	                	;
 J-110           	909.9       	1.52083     	11              	;
 J-111           	916.9       	0           	                	;
 J-112           	922.6       	2.41898     	2               	;
 J-113           	896         	0           	                	;
 J-114           	897         	0.32639     	11              	;
 J-115           	892.8       	0.26852     	11              	;
 J-116           	841         	1.75231     	11              	;
 J-117           	907         	0           	                	;
 J-118           	835.5       	1.52083     	11              	;
 J-119           	862.2       	0           	                	;
 J-12            	797.2       	2.22454     	1               	;
 J-120           	832.7       	0.86111     	11              	;
 J-121           	835.6       	0           	                	;
 J-122           	903.6       	0           	                	;
 J-123           	848.2       	0           	                	;
 J-124           	853.4       	0           	                	;
 J-125           	869.5       	1.96296     	11              	;
 J-126           	902.6       	2.74537     	11              	;
 J-127           	805.1       	0.01852     	11              	;
 J-128           	804.2       	0           	                	;
 J-129           	835.2       	0.19907     	11              	;
 J-13            	872.7       	0           	                	;
 J-130           	837.6       	0           	                	;
 J-131           	837.6       	0.15046     	1               	;
 J-132           	842.7       	0.53704     	11              	;
 J-133           	877.1       	1.74306     	11              	;
 J-134           	896.3       	0.60417     	11              	;
 J-135           	832         	0.75        	11              	;
 J-136           	843         	0.78935     	11              	;
 J-137           	884.2       	0           	                	;
 J-138           	897.6       	0.92824     	11              	;
 J-139           	860         	0           	                	;
 J-14            	875.9       	1.25231     	1               	;
 J-140           	863.6       	0           	                	;
 J-141           	844         	0           	                	;
 J-142           	829.3       	0           	                	;
 J-143           	888.4       	0.01852     	1               	;
 J-144           	942.2       	0           	                	;
 J-145           	941         	0           	                	;
 J-146           	862.4       	0.53472     	11              	;
 J-147           	836.2       	0           	                	;
 J-148           	836.2       	1.14815     	11              	;
 J-149           	842.4       	0.56481     	11              	;
 J-15            	912.2       	0.375       	11              	;
 J-150           	845.2       	0.57639     	11              	;
 J-151           	835.5       	0           	                	;
 J-152           	790.9       	0.8125      	11              	;
 J-153           	872         	2.11574     	11              	;
 J-154           	854.8       	0.5625      	11              	;
 J-155           	858.4       	0.1713      	11              	;
 J-156           	851.7       	0.53935     	11              	;
 J-157           	849.5       	1.125       	11              	;
 J-158           	803.7       	0           	                	;
 J-159           	869.5       	0           	                	;
 J-16            	914.3       	0.64583     	11              	;
 J-160           	834.8       	0           	                	;
 J-161           	834.8       	0           	                	;
 J-162           	841.4       	0.03241     	11              	;
 J-163           	809.1       	0           	                	;
 J-164           	850.4       	0.28472     	2               	;
 J-165           	844.9       	0           	                	;
 J-166           	824         	0.39352     	11              	;
 J-167           	821.1       	0           	                	;
 J-168           	790         	0.04398     	2               	;
 J-169           	797.8       	0           	                	;
 J-17            	887         	2.53704     	2               	;
 J-170           	829.9       	0.33565     	11              	;
 J-171           	830.9       	0.30093     	2               	;
 J-172           	863.2       	0           	                	;
 J-173           	860.6       	0.75231     	11              	;
 J-174           	808.2       	0.28241     	11              	;
 J-175           	806.1       	0.96528     	11              	;
 J-176           	829.9       	0.21296     	11              	;
 J-177           	828.2       	1.1875      	11              	;
 J-178           	878.1       	0           	                	;
 J-179           	905.6       	2.38889     	11              	;
 J-18            	888.3       	1.45139     	2               	;
 J-180           	835.7       	0           	                	;
 J-181           	855.1       	0.58796     	11              	;
 J-182           	851.7       	0           	                	;
 J-183           	812.3       	0.1875      	11              	;
 J-184           	816.2       	0.2338      	11              	;
 J-185           	848.5       	2.42361     	11              	;
 J-186           	805.8       	0           	                	;
 J-187           	795.9       	0           	                	;
 J-188           	840         	0           	                	;
 J-189           	838.9       	0           	                	;
 J-19            	860.3       	0.34491     	1               	;
 J-190           	886.7       	0.32407     	11              	;
 J-191           	879.5       	1.38426     	11              	;
 J-192           	902.6       	1.22685     	1               	;
 J-193           	898.1       	0           	                	;
 J-194           	887.5       	1.46759     	11              	;
 J-195           	809.9       	2.08333     	2               	;
 J-196           	855.6       	1.0625      	11              	;
 J-197           	855.6       	3.16204     	11              	;
 J-198           	824.6       	2.14352     	11              	;
 J-199           	891.8       	1.46296     	11              	;
 J-2             	889.8       	9.7963      	2               	;
 J-20            	853.1       	0.39583     	11              	;
 J-200           	834.5       	0           	                	;
 J-201           	845.2       	0           	                	;
 J-202           	809         	0           	                	;
 J-203           	800         	0.59491     	11              	;
 J-204           	791.3       	0           	                	;
 J-205           	891.4       	0.29398     	11              	;
 J-206           	894.9       	0.22222     	11              	;
 J-207           	850.1       	0.37732     	1               	;
 J-208           	844.7       	1.20602     	11              	;
 J-209           	889.4       	0.94213     	11              	;
 J-21            	838         	0           	                	;
 J-210           	867.6       	1.75        	11              	;
 J-211           	819.8       	0.7338      	11              	;
 J-212           	812.1       	1.36111     	11              	;
 J-213           	817.7       	5.75463     	2               	;
 J-214           	812.1       	0           	                	;
 J-215           	855.2       	0.0625      	11              	;
 J-216           	803.6       	0.22917     	11              	;
 J-217           	849.7       	0.86574     	11              	;
 J-218           	858.5       	0           	                	;
 J-219           	833.1       	0.76852     	11              	;
 J-22            	864.8       	1.20602     	11              	;
 J-220           	864.4       	2.01852     	11              	;
 J-221           	891.5       	0           	                	;
 J-222           	887.1       	0.2         	11              	;
 J-223           	854.2       	0.54167     	11              	;
 J-224           	815.5       	0.51157     	11              	;
 J-225           	816.9       	0.10417     	11              	;
 J-226           	833.2       	0           	                	;
 J-227           	832         	0           	                	;
 J-228           	851.5       	0           	                	;
 J-229           	856.7       	0.58333     	11              	;
 J-23            	822.7       	1.50231     	11              	;
 J-230           	859.3       	0           	                	;
 J-231           	812.3       	0.45833     	11              	;
 J-232           	896.7       	2.22454     	11              	;
 J-233           	834.7       	0           	                	;
 J-234           	852.5       	1.62269     	11              	;
 J-235           	862         	0.3125      	11              	;
 J-236           	825.2       	0           	                	;
 J-237           	891         	0.17361     	11              	;
 J-238           	892.3       	0.19213     	11              	;
 J-239           	788.1       	0.91667     	11              	;
 J-24            	815.4       	0.35185     	2               	;
 J-240           	790         	1.2963      	11              	;
 J-241           	899.9       	0.80324     	11              	;
 J-242           	887         	0           	                	;
 J-243           	808.3       	0.17593     	11              	;
 J-244           	791         	0.28935     	11              	;
 J-245           	912.7       	0           	                	;
 J-246           	875.6       	0.80093     	11              	;
 J-247           	808.3       	0           	                	;
 J-248           	869.8       	0.90972     	11              	;
 J-249           	860.6       	2.00926     	11              	;
 J-25            	871.3       	2.41667     	11              	;
 J-250           	798.6       	0           	                	;
 J-251           	862.1       	0           	                	;
 J-252           	851.5       	5.3         	1               	;
 J-253           	859.4       	2.16898     	11              	;
 J-254           	915         	0.30093     	2               	;
 J-255           	858.2       	0.125       	11              	;
 J-256           	856.3       	0           	                	;
 J-257           	845.2       	1.81713     	1               	;
 J-258           	831.3       	0.78935     	1               	;
 J-259           	817         	10.8356     	1               	;
 J-26            	857.4       	1.71759     	11              	;
 J-260           	849.2       	0           	                	;
 J-261           	841.7       	0           	                	;
 J-262           	834.8       	1.18981     	11              	;
 J-263           	840.7       	0.20139     	11              	;
 J-264           	836.7       	0           	                	;
 J-265           	821.2       	0.46296     	11              	;
 J-266           	813.4       	0           	                	;
 J-267           	803.7       	1.2037      	11              	;
 J-268           	881.2       	0.50694     	11              	;
 J-269           	777.2       	0           	                	;
 J-27            	847.8       	0.70139     	1               	;
 J-270           	915         	1.41435     	11              	;
 J-271           	913.8       	1.72454     	11              	;
 J-272           	878.6       	0           	                	;
 J-273           	865.8       	0.37963     	11              	;
 J-274           	843         	2.22917     	1               	;
 J-275           	850         	0.75        	11              	;
 J-276           	845.7       	0           	                	;
 J-277           	824.4       	0.41667     	11              	;
 J-278           	819.9       	0           	                	;
 J-279           	846.2       	0.60417     	11              	;
 J-28            	838.4       	1.20602     	11              	;
 J-280           	813.6       	0.93056     	11              	;
 J-281           	837.6       	1.15278     	1               	;
 J-282           	805.8       	0.25694     	2               	;
 J-283           	842.3       	2.31944     	2               	;
 J-284           	838.9       	3.41204     	1               	;
 J-285           	842         	0.22917     	11              	;
 J-286           	857.9       	2.17593     	11              	;
 J-287           	870.6       	0.85417     	11              	;
 J-288           	813.4       	0           	                	;
 J-289           	849.6       	1.84722     	11              	;
 J-29            	872.4       	0           	                	;
 J-290           	859.7       	0           	                	;
 J-291           	852.4       	0           	                	;
 J-292           	841.7       	0.05556     	11              	;
 J-293           	848.4       	0.4375      	11              	;
 J-294           	860.7       	1.91667     	11              	;
 J-295           	869.4       	0           	                	;
 J-296           	909.8       	0.2662      	11              	;
 J-297           	838.2       	0.34259     	1               	;
 J-298           	839.5       	0.12963     	11              	;
 J-299           	834         	0.44907     	11              	;
 J-3             	867         	1.31481     	11              	;
 J-30            	880.7       	0           	                	;
 J-300           	858.7       	1.28472     	11              	;
 J-301           	856         	2.20139     	11              	;
 J-302           	853.8       	0.21991     	2               	;
 J-303           	877         	0.18287     	11              	;
 J-304           	886.5       	1.74537     	11              	;
 J-305           	863.7       	0           	                	;
 J-306           	792.6       	0.7037      	11              	;
 J-307           	908.8       	0.7037      	11              	;
 J-308           	892.6       	0.26852     	11              	;
 J-309           	818         	1.86574     	11              	;
 J-31            	793.2       	1           	11              	;
 J-310           	853.1       	0.34954     	1               	;
 J-311           	860.1       	0.48843     	11              	;
 J-312           	840         	1.9838      	11              	;
 J-313           	836.9       	0.05787     	11              	;
 J-314           	830.9       	0.34259     	1               	;
 J-315           	830         	0           	                	;
 J-316           	840.2       	0           	                	;
 J-317           	869.8       	1.90046     	1               	;
 J-318           	820.4       	0           	                	;
 J-319           	820.3       	0           	                	;
 J-32            	799.5       	0.25926     	11              	;
 J-320           	892.8       	0           	                	;
 J-321           	854.1       	0.19213     	2               	;
 J-322           	891.3       	0           	                	;
 J-323           	889.8       	0.19676     	1               	;
 J-324           	844.5       	1.17824     	11              	;
 J-325           	868.2       	0.96991     	11              	;
 J-326           	892         	0           	                	;
 J-327           	828         	1.03935     	11              	;
 J-328           	819.6       	0.12269     	2               	;
 J-329           	803.9       	0           	                	;
 J-33            	878.7       	0.01852     	11              	;
 J-330           	877.6       	3.47685     	11              	;
 J-331           	856         	0           	                	;
 J-332           	834.7       	23.9282     	2               	;
 J-333           	853.9       	5.20139     	2               	;
 J-334           	894.2       	0.56944     	11              	;
 J-335           	815.8       	0.84028     	11              	;
 J-336           	818.1       	1.22222     	11              	;
 J-337           	886.7       	3.76852     	11              	;
 J-338           	917.5       	0           	                	;
 J-339           	876.7       	0.52083     	11              	;
 J-34            	892.4       	0           	                	;
 J-340           	859.5       	2.3125      	11              	;
 J-341           	878.3       	0.74537     	11              	;
 J-342           	899.3       	0.94907     	2               	;
 J-343           	827.5       	0.8287      	11              	;
 J-344           	842.8       	0.84722     	11              	;
 J-345           	846.7       	0.37037     	11              	;
 J-346           	848.1       	0.70833     	11              	;
 J-347           	834.8       	0.55556     	11              	;
 J-348           	836.1       	0           	                	;
 J-349           	854.5       	0           	                	;
 J-35            	900.2       	1.32407     	2               	;
 J-350           	853.3       	0           	                	;
 J-351           	879.9       	0           	                	;
 J-352           	854.5       	0.23843     	11              	;
 J-353           	862.4       	3.26852     	1               	;
 J-354           	839.5       	0           	                	;
 J-355           	831.3       	2.39352     	11              	;
 J-356           	838.7       	1.06944     	11              	;
 J-357           	845.1       	2.75926     	11              	;
 J-358           	797.9       	0           	                	;
 J-359           	849.6       	0           	                	;
 J-36            	940.3       	0.0463      	2               	;
 J-360           	843.8       	0.46296     	11              	;
 J-361           	838.5       	1.40278     	1               	;
 J-362           	838.9       	0.57176     	11              	;
 J-363           	861.1       	0           	                	;
 J-364           	872         	0           	                	;
 J-365           	865.9       	0           	                	;
 J-366           	868.6       	1.47454     	2               	;
 J-367           	868         	1.51852     	11              	;
 J-368           	847.5       	2.67361     	11              	;
 J-369           	902.4       	0           	                	;
 J-37            	872.7       	0.16667     	1               	;
 J-370           	872.5       	0.11806     	11              	;
 J-371           	886.7       	0.12269     	11              	;
 J-372           	894.3       	0           	                	;
 J-373           	884         	0           	                	;
 J-374           	862         	3.43519     	11              	;
 J-375           	848.7       	0           	                	;
 J-376           	828.2       	0.60648     	11              	;
 J-377           	869.5       	0           	                	;
 J-378           	881.6       	1.125       	2               	;
 J-379           	880.2       	1.12731     	2               	;
 J-38            	870.5       	0           	                	;
 J-380           	903.3       	7.09491     	1               	;
 J-381           	902.6       	0           	                	;
 J-382           	827.1       	0.56713     	11              	;
 J-383           	886.2       	0.20602     	11              	;
 J-384           	899.9       	1.12963     	11              	;
 J-385           	846.6       	0.90972     	11              	;
 J-386           	795.6       	1.7963      	11              	;
 J-387           	863.6       	0.82639     	11              	;
 J-388           	859.1       	0.37963     	11              	;
 J-389           	863.7       	0           	                	;
 J-39            	894.9       	2.41204     	11              	;
 J-390           	869.9       	1.40509     	2               	;
 J-391           	865.9       	3.53473     	11              	;
 J-392           	880.7       	2           	11              	;
 J-393           	817         	1.60185     	1               	;
 J-394           	807         	1.05324     	11              	;
 J-395           	803.4       	1.14352     	11              	;
 J-396           	853         	0           	                	;
 J-397           	804.8       	0           	                	;
 J-398           	837.7       	1.15509     	2               	;
 J-399           	941.7       	0           	                	;
 J-4             	846.5       	0           	                	;
 J-40            	896.8       	0           	                	;
 J-400           	862.1       	1.57639     	11              	;
 J-401           	872         	0.58796     	11              	;
 J-402           	887.4       	0           	                	;
 J-403           	859.9       	0.13889     	11              	;
 J-404           	871.2       	0           	                	;
 J-405           	902.6       	0.36574     	1               	;
 J-406           	834.4       	1.40741     	11              	;
 J-407           	836.1       	0.35417     	11              	;
 J-408           	886.7       	2           	11              	;
 J-409           	868.3       	0.31713     	11              	;
 J-41            	872         	4.56713     	11              	;
 J-410           	864.3       	0.28009     	11              	;
 J-411           	873.6       	1.5         	11              	;
 J-412           	868.1       	0.28935     	11              	;
 J-413           	858.6       	0           	                	;
 J-414           	834.4       	2.57639     	1               	;
 J-415           	840.4       	0.56019     	11              	;
 J-416           	852.2       	0.6713      	11              	;
 J-417           	852.9       	0           	                	;
 J-418           	864.7       	0           	                	;
 J-419           	859.9       	3.20833     	1               	;
 J-42            	879.0002    	1.59954     	11              	;
 J-420           	880         	0           	                	;
 J-421           	862.4       	1.31019     	1               	;
 J-422           	926.2       	0           	                	;
 J-423           	869.6       	0.61343     	11              	;
 J-424           	898         	3.09954     	1               	;
 J-425           	876.2       	0.57176     	11              	;
 J-426           	923.3       	0           	                	;
 J-427           	940.8       	0.08565     	2               	;
 J-428           	808.8       	0           	                	;
 J-429           	871.2       	0.37037     	11              	;
 J-43            	902.3       	0.46296     	11              	;
 J-430           	844.5       	1.0463      	1               	;
 J-431           	866.1       	0.14352     	11              	;
 J-432           	872.6       	0.56944     	11              	;
 J-433           	816.2       	0.06019     	11              	;
 J-434           	836.8       	0.65972     	11              	;
 J-435           	864.7       	0.9375      	11              	;
 J-436           	860.7       	0           	                	;
 J-437           	844.5       	0.02083     	11              	;
 J-438           	855.7       	0           	                	;
 J-439           	826.1       	0.51389     	1               	;
 J-44            	828.7       	1.4838      	1               	;
 J-440           	822.2       	0           	                	;
 J-441           	789.8       	2.19213     	2               	;
 J-442           	785.4       	0.29861     	11              	;
 J-443           	936.1       	0.82639     	11              	;
 J-444           	910.7       	2.4537      	2               	;
 J-445           	809.5       	0.57407     	11              	;
 J-446           	834.9       	0.46991     	11              	;
 J-447           	818.7       	0.15972     	11              	;
 J-448           	834         	0           	                	;
 J-449           	838.7       	1.54861     	11              	;
 J-45            	805.3       	0.66898     	11              	;
 J-450           	790.7       	0           	                	;
 J-451           	806.8       	0           	                	;
 J-452           	811.3       	0           	                	;
 J-453           	869.5       	12.2616     	11              	;
 J-454           	799.3       	0.29167     	2               	;
 J-455           	859.6       	0           	                	;
 J-456           	894.2       	2.2662      	1               	;
 J-457           	891.5       	0           	                	;
 J-458           	911.4       	0           	                	;
 J-459           	920.6       	0.75231     	11              	;
 J-46            	814.1       	1.53241     	2               	;
 J-460           	877.3       	0           	                	;
 J-461           	927.4       	0.03241     	2               	;
 J-462           	875.5       	0           	                	;
 J-463           	860.8       	0           	                	;
 J-464           	879         	1.72222     	11              	;
 J-465           	861.5       	22.9        	1               	;
 J-466           	857.9       	0.19907     	11              	;
 J-467           	849.7       	0.56944     	11              	;
 J-468           	836.8       	0           	                	;
 J-469           	852.1       	1.77546     	11              	;
 J-47            	810.3       	3.17824     	11              	;
 J-470           	843.4       	0.26157     	11              	;
 J-471           	847.5       	0.57407     	11              	;
 J-472           	921         	6.42824     	11              	;
 J-473           	872.5       	0           	                	;
 J-474           	851.4       	2.99074     	1               	;
 J-475           	889.7       	0.65046     	11              	;
 J-476           	879.5       	0.4213      	1               	;
 J-477           	935.9       	0.30093     	11              	;
 J-478           	916.5       	1.11806     	11              	;
 J-479           	848         	0           	                	;
 J-48            	872.1       	0           	                	;
 J-480           	834.1       	0.35185     	11              	;
 J-481           	834.5       	0.71065     	11              	;
 J-482           	794         	0.58796     	1               	;
 J-483           	861.3       	200         	3               	;
 J-484           	863.3       	0           	                	;
 J-485           	936.2       	0           	                	;
 J-486           	791.3       	0           	                	;
 J-487           	834.6       	1.09491     	11              	;
 J-488           	831.7       	4.68982     	11              	;
 J-489           	808.6       	0           	                	;
 J-49            	886.9       	0.27778     	1               	;
 J-490           	951.9       	0.05324     	2               	;
 J-491           	893         	0.46065     	2               	;
 J-492           	811.3       	0           	                	;
 J-493           	837.3       	1.38426     	1               	;
 J-494           	868.7       	0           	                	;
 J-495           	852.8       	0.15509     	1               	;
 J-496           	860.4       	0           	                	;
 J-497           	860.3       	4.8         	1               	;
 J-498           	871.3       	3.35648     	11              	;
 J-499           	868.3       	0.34722     	11              	;
 J-5             	849         	0           	                	;
 J-50            	864.3       	0.11343     	11              	;
 J-500           	816.5       	1.94444     	11              	;
 J-501           	838.8       	0           	                	;
 J-502           	881.4       	1.03241     	1               	;
 J-503           	855.4       	2.80093     	1               	;
 J-504           	878.1       	0           	                	;
 J-505           	869.6       	0           	                	;
 J-506           	863.8       	22.1        	2               	;
 J-507           	877.6       	0.32176     	11              	;
 J-508           	873.3       	0.0463      	11              	;
 J-509           	855.5       	1.4375      	11              	;
 J-51            	883.7       	0.15972     	2               	;
 J-510           	876.4       	0           	                	;
 J-511           	834         	0           	                	;
 J-512           	850.2       	0.62963     	11              	;
 J-513           	854.8       	0           	                	;
 J-514           	856.5       	0           	                	;
 J-515           	841         	0           	                	;
 J-516           	888.7       	0           	                	;
 J-517           	856         	0           	                	;
 J-518           	870.5       	0.82639     	1               	;
 J-519           	852.8       	0           	                	;
 J-52            	842         	0.05787     	1               	;
 J-520           	822.6       	0.74769     	11              	;
 J-521           	865.7       	0           	                	;
 J-522           	868.7       	0           	                	;
 J-523           	850.4       	1.02315     	2               	;
 J-524           	876.5       	1.64815     	1               	;
 J-525           	875.9       	0.62963     	1               	;
 J-526           	830.4       	1.75463     	1               	;
 J-527           	842.4       	2.28935     	1               	;
 J-528           	842.6       	0.91898     	2               	;
 J-529           	832.5       	0.88889     	2               	;
 J-53            	843.4       	0           	                	;
 J-530           	883.3       	1.21065     	11              	;
 J-531           	843.1       	0.84954     	11              	;
 J-532           	814.9       	0.41667     	11              	;
 J-533           	813.8       	8.86806     	11              	;
 J-534           	868         	1.88657     	11              	;
 J-535           	849.7       	0.45139     	2               	;
 J-536           	843.4       	0.45833     	11              	;
 J-537           	868.2       	1.82407     	11              	;
 J-538           	899.7       	2.7037      	11              	;
 J-539           	902.2       	0           	                	;
 J-54            	845.5       	3           	1               	;
 J-540           	876.9       	0           	                	;
 J-541           	880.5       	0.49768     	2               	;
 J-542           	871.3       	0           	                	;
 J-543           	878.4       	0.73148     	2               	;
 J-544           	867.8       	0.54167     	2               	;
 J-545           	795.7       	0           	                	;
 J-546           	870.6       	0           	                	;
 J-547           	867.3       	1.68287     	1               	;
 J-548           	832.9       	0.28704     	11              	;
 J-549           	825         	0           	                	;
 J-55            	861.7       	0           	                	;
 J-550           	832.3       	0.67361     	11              	;
 J-551           	860.5       	0.39815     	11              	;
 J-552           	875.9       	0.29398     	1               	;
 J-553           	907.5       	0           	                	;
 J-554           	894.7       	0.77546     	1               	;
 J-555           	878.7       	0.96        	11              	;
 J-556           	882.7       	1.25231     	11              	;
 J-557           	848.2       	3.57639     	11              	;
 J-558           	830         	3.30787     	1               	;
 J-559           	853.4       	9.80787     	11              	;
 J-56            	847.5       	0.41667     	11              	;
 J-560           	877.9       	0           	                	;
 J-561           	794.3       	0.16667     	11              	;
 J-562           	789.1       	0.41435     	11              	;
 J-563           	857.7       	0.33333     	11              	;
 J-564           	826.3       	2.19907     	11              	;
 J-565           	891.5       	1.22454     	11              	;
 J-566           	862.5       	1.11806     	11              	;
 J-567           	876.3       	1.24306     	11              	;
 J-568           	913.6       	0.16435     	11              	;
 J-569           	938.2       	0           	                	;
 J-57            	841.5       	2.09491     	11              	;
 J-570           	856.6       	1.07639     	11              	;
 J-571           	869         	0.06019     	11              	;
 J-572           	889.6       	0           	                	;
 J-573           	809         	0.43518     	11              	;
 J-574           	829.1       	0.80556     	11              	;
 J-575           	846.2       	0.1713      	11              	;
 J-576           	908.8       	1.76389     	2               	;
 J-577           	843.1       	3.96528     	11              	;
 J-578           	880.7       	1.44444     	11              	;
 J-579           	853.8       	0.84028     	11              	;
 J-58            	808.2       	1.56713     	11              	;
 J-580           	810.4       	0.10185     	11              	;
 J-581           	872.8       	0.51        	1               	;
 J-582           	876.1       	0.40972     	11              	;
 J-583           	920.6       	0           	                	;
 J-584           	921.5       	0.59028     	2               	;
 J-585           	896.8       	0           	                	;
 J-586           	814.6       	0           	                	;
 J-587           	823.4       	0           	                	;
 J-588           	827.9       	0           	                	;
 J-589           	856.6       	0           	                	;
 J-59            	849.1       	1           	11              	;
 J-590           	807.6       	0           	                	;
 J-591           	886.4       	1.31481     	11              	;
 J-592           	845.6       	1.94444     	11              	;
 J-593           	820.5       	0           	                	;
 J-594           	862.2       	0           	                	;
 J-595           	858.9       	1.36343     	11              	;
 J-596           	844.8       	0.23843     	2               	;
 J-597           	893.6       	0.69907     	11              	;
 J-598           	896.9       	0.30093     	2               	;
 J-599           	858         	0.26157     	11              	;
 J-6             	912.1       	1.68981     	2               	;
 J-60            	861.5       	0           	                	;
 J-600           	836.1       	1.4375      	2               	;
 J-601           	859.5       	1.09954     	11              	;
 J-602           	811.7       	2.86343     	11              	;
 J-603           	899.9       	2.66667     	11              	;
 J-604           	913.5       	1.23843     	11              	;
 J-605           	850.8       	3           	11              	;
 J-606           	856.6       	0           	                	;
 J-607           	850         	0.88194     	11              	;
 J-608           	916.5       	0           	                	;
 J-609           	871.1       	0           	                	;
 J-61            	868.1       	0.37963     	11              	;
 J-610           	890.4       	0           	                	;
 J-611           	864.2       	1.04167     	11              	;
 J-612           	813.4       	0.96991     	11              	;
 J-613           	924.6       	1.55093     	2               	;
 J-614           	904.2       	0           	                	;
 J-615           	892.4       	1.28472     	11              	;
 J-616           	836.1       	0.2338      	11              	;
 J-617           	808.3       	0           	                	;
 J-618           	835.5       	0.63657     	1               	;
 J-619           	871.4       	0           	                	;
 J-619a          	875         	0           	                	;
 J-62            	869         	0           	                	;
 J-620           	850.4       	0.58565     	11              	;
 J-621           	896.9       	0           	                	;
 J-622           	814.8       	0           	                	;
 J-623           	870         	3.23843     	2               	;
 J-624           	903.6       	0           	                	;
 J-625           	834.9       	0.22685     	1               	;
 J-626           	871.5       	0.71528     	2               	;
 J-627           	882.7       	1           	11              	;
 J-628           	884         	0           	                	;
 J-629           	811.4       	0.3588      	11              	;
 J-63            	861.2       	0.78935     	11              	;
 J-630           	809.4       	1.2338      	11              	;
 J-631           	867.2       	0.25694     	11              	;
 J-632           	878.4       	2.72917     	11              	;
 J-633           	813.2       	2.13657     	11              	;
 J-634           	865.2       	0.14352     	2               	;
 J-635           	846.4       	4           	1               	;
 J-636           	873.4       	0           	                	;
 J-637           	872.2       	0           	                	;
 J-638           	818.3       	0           	                	;
 J-639           	803.6       	0.94676     	11              	;
 J-64            	870.4       	3.65509     	11              	;
 J-640           	875.1       	0.39352     	11              	;
 J-641           	923.3       	0           	                	;
 J-642           	836.1       	0           	                	;
 J-643           	921.4       	0           	                	;
 J-644           	911.5       	0.38426     	11              	;
 J-645           	911.5       	3.80324     	11              	;
 J-646           	913         	2.4838      	11              	;
 J-647           	872.3       	4.30324     	11              	;
 J-648           	888.3       	0.54398     	11              	;
 J-649           	885.8       	0           	                	;
 J-65            	833.7       	0.63657     	11              	;
 J-650           	888.6       	0.7037      	11              	;
 J-651           	838.6       	0           	                	;
 J-652           	874.5       	4.22917     	2               	;
 J-653           	841         	0.07176     	1               	;
 J-654           	840.3       	0.17361     	1               	;
 J-655           	854.4       	0           	                	;
 J-656           	830.6       	1.19907     	11              	;
 J-657           	830.1       	0.92593     	11              	;
 J-658           	878.1       	0           	                	;
 J-659           	853.7       	3.15741     	2               	;
 J-66            	834.5       	0           	                	;
 J-660           	875.4       	0.15972     	11              	;
 J-661           	870.8       	1.08333     	11              	;
 J-662           	827.2       	0.51389     	11              	;
 J-663           	883.8       	1.09722     	2               	;
 J-664           	899.4       	0           	                	;
 J-665           	926.6       	0           	                	;
 J-666           	833.9       	2.00926     	11              	;
 J-667           	836.1       	9.50231     	11              	;
 J-668           	869.8       	0.28704     	2               	;
 J-669           	868.4       	0.03472     	1               	;
 J-67            	837.1       	6           	11              	;
 J-670           	846.9       	0           	                	;
 J-671           	837.3       	0.1713      	11              	;
 J-672           	871.1       	0.33102     	11              	;
 J-673           	858.4       	0.36574     	11              	;
 J-674           	874.8       	0.03472     	2               	;
 J-675           	812.9       	0           	                	;
 J-676           	794.3       	0           	                	;
 J-677           	839.4       	2.86574     	11              	;
 J-678           	870.4       	2.25926     	1               	;
 J-679           	905.3       	0           	                	;
 J-68            	844.9       	0           	                	;
 J-680           	805.2       	5.27083     	11              	;
 J-681           	800.8       	0           	                	;
 J-682           	865.2       	15.2963     	11              	;
 J-683           	869.9       	0           	                	;
 J-684           	819.2       	0.76389     	11              	;
 J-685           	869.8       	1.87037     	2               	;
 J-686           	921.8       	0.89815     	2               	;
 J-687           	927.5       	0           	                	;
 J-688           	861.6       	0.18519     	11              	;
 J-689           	846.8       	1.2662      	1               	;
 J-69            	822.6       	0.7662      	11              	;
 J-690           	862         	0           	                	;
 J-691           	837.4       	0           	                	;
 J-692           	936.1       	0.17361     	2               	;
 J-693           	806.3       	0.00463     	11              	;
 J-694           	875.4       	0           	                	;
 J-695           	907         	0           	                	;
 J-696           	792.6       	0.25926     	11              	;
 J-697           	891.8       	1.34028     	11              	;
 J-698           	847.3       	1.79861     	2               	;
 J-699           	892.7       	0           	                	;
 J-7             	837.7       	1.68519     	11              	;
 J-70            	872.8       	0           	                	;
 J-700           	898.7       	0           	                	;
 J-701           	810.2       	1.02778     	11              	;
 J-702           	818.4       	1.28241     	11              	;
 J-703           	916.8       	0.57639     	11              	;
 J-704           	822.8       	0           	                	;
 J-705           	838         	0           	                	;
 J-706           	821         	0.19213     	11              	;
 J-707           	834         	0.19444     	11              	;
 J-708           	796         	0.6875      	2               	;
 J-709           	796         	1           	11              	;
 J-71            	860.8       	1.40509     	11              	;
 J-710           	834.1       	0           	                	;
 J-711           	886.9       	0           	                	;
 J-712           	849.5       	0.01852     	11              	;
 J-713           	901.8       	0           	                	;
 J-714           	884.1       	0.40278     	11              	;
 J-715           	896.9       	2           	2               	;
 J-716           	842.8       	0           	                	;
 J-717           	869.3       	0           	                	;
 J-718           	886.4       	3.3912      	11              	;
 J-719           	873.3       	0.48611     	2               	;
 J-72            	861.3       	0.21528     	11              	;
 J-720           	891.8       	0.74769     	11              	;
 J-721           	897.6       	0           	                	;
 J-722           	897.5       	0           	                	;
 J-723           	897.5       	0           	                	;
 J-724           	801.7       	0           	                	;
 J-725           	892.3       	0           	                	;
 J-726           	897.6       	3.73611     	1               	;
 J-727           	887.4       	0           	                	;
 J-728           	810.8       	1.11343     	11              	;
 J-729           	859.2       	0           	                	;
 J-73            	880.5       	0           	                	;
 J-730           	843.9       	0           	                	;
 J-731           	789         	0           	                	;
 J-732           	800         	0           	                	;
 J-733           	790.7       	0           	                	;
 J-734           	806.3       	0           	                	;
 J-735           	789         	0           	                	;
 J-736           	813.1       	0           	                	;
 J-737           	891         	0           	                	;
 J-738           	845.8       	0           	                	;
 J-739           	897.6       	0.18287     	1               	;
 J-74            	880.8       	0           	                	;
 J-740           	883.2       	2           	11              	;
 J-741           	896.4       	2           	11              	;
 J-742           	882.1       	2           	11              	;
 J-743           	867.9       	0           	                	;
 J-744           	934.6       	4.92593     	11              	;
 J-745           	865.7       	33.7685     	2               	;
 J-746           	869.8       	0           	                	;
 J-747           	813.5       	0.25232     	2               	;
 J-748           	851.5       	11.1042     	2               	;
 J-749           	869.8       	1.42593     	2               	;
 J-75            	867.2       	3           	11              	;
 J-750           	873.6       	1.75694     	2               	;
 J-751           	868.5       	0.13194     	2               	;
 J-752           	881.6       	0           	                	;
 J-753           	907         	0.4213      	2               	;
 J-754           	892.4       	63.37       	                	;
 J-76            	850.7       	0           	                	;
 J-760           	876.4       	0           	                	;
 J-761           	875         	0           	                	;
 J-77            	843.4       	0           	                	;
 J-78            	842.4       	1.17361     	11              	;
 J-79            	855.2       	0           	                	;
 J-8             	837         	0.12037     	11              	;
 J-80            	807.9       	1.88657     	11              	;
 J-81            	892.6       	0.90972     	1               	;
 J-82            	892         	0.54167     	1               	;
 J-83            	847.8       	1.30787     	11              	;
 J-84            	890.6       	1.45        	11              	;
 J-85            	873.3       	1.14815     	11              	;
 J-86            	871.5       	0.10417     	11              	;
 J-87            	822.2       	6.6         	11              	;
 J-88            	837.5       	0.60185     	1               	;
 J-89            	876.6       	0           	                	;
 J-9             	804.9       	0           	                	;
 J-90            	892.1       	1.60648     	11              	;
 J-91            	883.3       	0.30324     	2               	;
 J-92            	821.8       	1.03935     	2               	;
 J-93            	808.2       	0.28009     	11              	;
 J-94            	849.8       	0           	                	;
 J-95            	804.1       	0           	                	;
 J-96            	901.4       	0.06944     	11              	;
 J-97            	903.3       	0           	                	;
 J-98            	832.2       	0           	                	;
 J-99            	816.6       	0           	                	;
 I-Pump-1        	789         	0           	                	;
 I-Pump-2        	789         	0           	                	;
 I-AV-2          	875         	0           	                	;
 O-Pump-1        	789         	0           	                	;
 O-Pump-2        	789         	0           	                	;

[RESERVOIRS]
;ID              	Head        	Pattern         
 R1              	797         	Res1            	;
 T-1             	1030.25     	Res2            	;
 T-2             	1025        	Res3            	;
 T-3             	946         	Res4            	;

[TANKS]
;ID              	Elevation   	InitLevel   	MinLevel    	MaxLevel    	Diameter    	MinVol      	VolCurve        	Overflow

[PIPES]
;ID              	Node1           	Node2           	Length      	Diameter    	Roughness   	MinorLoss   	Status
 P-1	J-1	J-2	3466.785627	12	130	0	Open
P-10	J-17	J-18	2309.86	8	140	0	Open
P-100	J-164	J-128	3121.75	16	130	0	Open
P-101	J-166	J-167	449.839	12	130	0	Open
P-102	J-168	J-169	234.339	1	130	0	Open
P-103	J-170	J-171	505.399	6	120	0	Open
P-104	J-172	J-173	296.779	6	140	0	Open
P-105	J-174	J-175	94.379	6	130	0	Open
P-106	J-176	J-177	477.82	6	140	0	Open
P-107	J-178	J-179	809.28	6	130	0	Open
P-108	J-118	J-180	294.97	2	130	0	Open
P-109	J-181	J-182	78.36	6	40	0	Open
P-11	J-19	J-20	202.679	6	40	0	Open
P-110	J-183	J-184	166.389	4	100	0	Open
P-111	J-124	J-185	905.01	6	70	0	Open
P-112	J-186	J-187	745.559	12	40	0	Open
P-113	J-188	J-189	10.26	4	40	0	Open
P-114	J-190	J-191	515.25	6	140	0	Open
P-115	J-136	J-141	384.589	2	130	0	Open
P-116	J-192	J-722	425.89	6	40	0	Open
P-117	J-194	J-190	41.45	6	140	0	Open
P-118	J-195	J-169	380.95	1.25	130	0	Open
P-119	J-176	J-171	72.3	6	140	0	Open
P-12	J-21	J-22	425.67	12	130	0	Open
P-120	J-196	J-197	8.34	6	40	0	Open
P-121	J-166	J-198	24.92	6	120	0	Open
P-122	J-138	J-199	349.82	6	120	0	Open
P-123	J-66	J-200	10.02	4	100	0	Open
P-124	J-128	J-62	1197.68	16	130	0	Open
P-125	J-124	J-202	666.26	6	70	0	Open
P-126	J-203	J-204	690.7	6	130	0	Open
P-127	J-65	J-160	168.08	6	120	0	Open
P-128	J-205	J-206	130.919	6	40	0	Open
P-129	J-125	J-133	763.44	6	130	0	Open
P-13	J-23	J-24	351.489	6	40	0	Open
P-130	J-197	J-207	471.019	6	40	0	Open
P-131	J-130	J-208	127.669	2	130	0	Open
P-132	J-209	J-210	701.9	6	40	0	Open
P-133	J-211	J-212	548.359	4	70	0	Open
P-134	J-213	J-214	159.039	6	40	0	Open
P-135	J-215	J-216	452.26	6	120	0	Open
P-136	J-217	J-218	190.36	6	130	0	Open
P-137	J-219	J-130	81.839	2	130	0	Open
P-138	J-154	J-220	607.409	6	130	0	Open
P-139	J-222	J-84	519.119	6	40	0	Open
P-14	J-25	J-26	366.38	6	40	0	Open
P-140	J-26	J-223	429.69	4	40	0	Open
P-141	J-224	J-225	54.209	4	40	0	Open
P-142	J-226	J-227	1730.04	16	130	0	Open
P-143	J-228	J-156	106.419	6	130	0	Open
P-144	J-79	J-139	377.1	4	100	0	Open
P-145	J-230	J-63	197.839	6	130	0	Open
P-146	J-231	J-184	197.99	6	120	0	Open
P-147	J-232	J-126	325.089	6	120	0	Open
P-148	J-135	J-233	381.579	6	120	0	Open
P-149	J-234	J-235	173.139	6	130	0	Open
P-15	J-27	J-28	122.629	8	40	0	Open
P-150	J-167	J-236	148.479	1.25	130	0	Open
P-151	J-237	J-238	40.889	2	130	0	Open
P-152	J-239	J-240	16.26	6	40	0	Open
P-153	J-241	J-194	241.389	6	140	0	Open
P-154	J-242	J-194	158.119	6	140	0	Open
P-155	J-243	J-244	513.169	6	130	0	Open
P-156	J-237	J-245	1482.599	4	130	0	Open
P-157	J-190	J-725	335.5	6	140	0	Open
P-158	J-174	J-247	81.379	6	130	0	Open
P-159	J-248	J-249	461.19	6	140	0	Open
P-16	J-29	J-30	154.94	6	130	0	Open
P-160	J-195	J-166	674.52	6	120	0	Open
P-161	J-732	J-250	728.559	16	70	0	Open
P-162	J-252	J-253	595.109	8	40	0	Open
P-163	J-245	J-254	859.979	4	130	0	Open
P-164	J-255	J-173	285.94	6	140	0	Open
P-165	J-256	J-257	252.809	4	40	0	Open
P-166	J-258	J-259	247.339	8	40	0	Open
P-167	J-260	J-261	444.779	8	130	0	Open
P-168	J-262	J-263	132.91	6	120	0	Open
P-169	J-260	J-264	417.209	8	130	0	Open
P-17	J-31	J-32	662.44	6	120	0	Open
P-170	J-265	J-266	638.9	2	130	0	Open
P-171	J-240	J-267	1155.91	6	40	0	Open
P-172	J-268	J-241	1009.559	6	140	0	Open
P-173	J-171	J-269	1627.15	6	120	0	Open
P-174	J-270	J-271	146.38	6	130	0	Open
P-175	J-272	J-273	1532.729	8	120	0	Open
P-176	J-274	J-257	599.65	8	40	0	Open
P-177	J-275	J-276	87.83	12	120	0	Open
P-178	J-277	J-267	622.08	6	40	0	Open
P-179	J-184	J-278	190.699	6	120	0	Open
P-18	J-33	J-34	1171.099	6	40	0	Open
P-180	J-120	J-279	191.49	6	40	0	Open
P-181	J-147	J-280	411.049	6	130	0	Open
P-182	J-88	J-281	301.42	6	40	0	Open
P-183	J-274	J-281	267.22	10	40	0	Open
P-184	J-282	J-283	674.739	4	40	0	Open
P-185	J-281	J-284	172.74	6	40	0	Open
P-186	J-285	J-136	72.419	2	130	0	Open
P-187	J-286	J-287	378.989	4	100	0	Open
P-188	J-732	J-288	483.75	10	70	0	Open
P-189	J-289	J-217	121.43	6	130	0	Open
P-19	J-35	J-36	878.78	6	130	0	Open
P-190	J-290	J-291	121.01	6	40	0	Open
P-191	J-292	J-293	205.19	2	130	0	Open
P-192	J-294	J-295	263.989	6	130	0	Open
P-193	J-242	J-296	531.57	8	140	0	Open
P-194	J-259	J-12	576.19	6	40	0	Open
P-195	J-257	J-297	216.88	8	40	0	Open
P-196	J-298	J-299	150.229	6	40	0	Open
P-197	J-300	J-301	822.28	12	120	0	Open
P-198	J-302	J-730	530.739	8	140	0	Open
P-199	J-303	J-232	340.709	6	120	0	Open
P-2	J-3	J-4	595.69	2	130	0	Open
P-20	J-37	J-38	607.46	8	130	0	Open
P-200	J-304	J-237	818.14	2	130	0	Open
P-201	J-273	J-305	223.1	8	120	0	Open
P-202	J-175	J-306	356.94	2	130	0	Open
P-203	J-307	J-113	455.17	6	140	0	Open
P-204	J-213	J-309	1723.729	6	40	0	Open
P-205	J-256	J-310	89.599	6	40	0	Open
P-206	J-311	J-312	323.73	6	130	0	Open
P-207	J-313	J-135	411.959	6	120	0	Open
P-208	J-314	J-258	174.44	8	40	0	Open
P-209	J-315	J-316	290.899	6	130	0	Open
P-21	J-39	J-40	232.559	6	130	0	Open
P-210	J-143	J-317	405.97	10	120	0	Open
P-211	J-318	J-319	58.22	4	100	0	Open
P-212	J-184	J-318	203.619	4	100	0	Open
P-213	J-212	J-203	292.6	6	70	0	Open
P-214	J-320	T-1	83.809	16	130	0	Open
P-215	J-284	J-256	430.69	6	40	0	Open
P-216	J-322	J-323	484.589	12	130	0	Open
P-217	J-324	J-325	417.959	8	120	0	Open
P-218	J-326	J-138	112.36	6	120	0	Open
P-219	J-116	J-327	222.75	6	40	0	Open
P-22	J-41	J-760	313.239	6	130	0	Open
P-220	J-328	J-329	3145.629	3	140	0	Open
P-221	J-732	J-266	490.2	2	130	0	Open
P-222	J-330	J-331	752.869	6	120	0	Open
P-223	J-332	J-333	2753.919	12	130	0	Open
P-224	J-134	J-334	419.23	8	120	0	Open
P-225	J-335	J-336	261.329	4	100	0	Open
P-226	J-337	J-338	483.19	6	130	0	Open
P-227	J-339	J-340	532.989	8	130	0	Open
P-228	J-341	J-337	212.139	6	130	0	Open
P-229	J-342	J-35	460.579	6	130	0	Open
P-23	J-43	J-15	286.75	4	70	0	Open
P-230	J-343	J-344	456.059	6	70	0	Open
P-231	J-244	J-306	106.48	6	120	0	Open
P-232	J-45	J-520	361.51	12	130	0	Open
P-233	J-345	J-346	294.059	6	120	0	Open
P-234	J-347	J-348	507.45	4	100	0	Open
P-235	J-331	J-349	677.2	6	120	0	Open
P-236	J-350	J-223	209.13	6	40	0	Open
P-237	J-351	J-250	2966.969	16	70	0	Open
P-238	J-26	J-352	165.889	6	40	0	Open
P-239	J-353	J-354	960.989	10	120	0	Open
P-24	J-44	J-45	3325.923927	12	130	0	Open
P-240	J-83	J-355	385.16	6	120	0	Open
P-241	J-356	J-357	422.459	8	130	0	Open
P-242	J-358	J-11	58.119	6	40	0	Open
P-243	J-359	J-360	227.32	1.5	130	0	Open
P-244	J-361	J-264	290.38	12	130	0	Open
P-245	J-362	J-68	429.929	4	40	0	Open
P-246	J-363	J-642	1138.219	12	40	0	Open
P-247	J-364	J-25	250.839	4	40	0	Open
P-248	J-365	J-366	300.429	10	120	0	Open
P-249	J-209	J-367	505.16	6	40	0	Open
P-25	J-46	J-47	482.059	12	130	0	Open
P-250	J-368	J-119	445.329	6	120	0	Open
P-251	J-178	J-369	293.29	6	130	0	Open
P-252	J-154	J-370	328.459	10	130	0	Open
P-253	J-42	J-144	1016.9	6	130	0	Open
P-254	J-179	J-144	810.349	6	130	0	Open
P-255	J-115	J-371	107.139	4	100	0	Open
P-256	J-315	J-186	338.72	6	130	0	Open
P-257	J-372	J-81	64.489	2	40	0	Open
P-258	J-340	J-356	426.239	8	130	0	Open
P-259	J-761	T-2	50.59	18	70	0	Open
P-26	J-48	J-49	396.609	8	140	0	Open
P-260	J-375	J-376	741.39	10	120	0	Open
P-261	J-721	J-193	18.6	6	40	0	Open
P-262	J-377	J-368	521.44	6	120	0	Open
P-263	J-107	J-378	1069.069	12	120	0	Open
P-264	J-81	J-379	799.78	2	40	0	Open
P-265	J-380	J-381	307.839	6	120	0	Open
P-266	J-368	J-382	158.279	6	120	0	Open
P-267	J-319	J-69	175.25	4	40	0	Open
P-268	J-369	J-383	386.88	6	130	0	Open
P-269	J-126	J-384	372.779	6	120	0	Open
P-27	J-50	J-51	4019.739627	6	140	0	Open
P-270	J-348	J-335	169.07	6	120	0	Open
P-271	J-369	J-110	798.789	6	130	0	Open
P-272	J-162	J-141	138.63	2	130	0	Open
P-273	J-181	J-197	446.209	6	40	0	Open
P-274	J-49	J-102	546.4	8	140	0	Open
P-275	J-330	J-385	867.619	4	100	0	Open
P-276	J-203	J-386	355.549	6	70	0	Open
P-277	J-140	J-387	47.83	4	100	0	Open
P-278	J-388	J-389	675.25	6	130	0	Open
P-279	J-375	J-390	348.589	10	120	0	Open
P-28	J-52	J-53	458.679	12	40	0	Open
P-280	J-391	J-392	526.849	6	130	0	Open
P-281	J-87	J-393	246.679	4	40	0	Open
P-282	J-95	J-394	1369.68	10	40	0	Open
P-283	J-394	J-395	498.38	10	40	0	Open
P-284	J-396	J-328	3640.428927	6	140	0	Open
P-285	J-216	J-397	172.369	6	120	0	Open
P-286	J-398	J-361	433.69	12	130	0	Open
P-287	J-238	J-272	556.28	6	120	0	Open
P-288	J-145	J-399	425.1	6	130	0	Open
P-289	J-146	J-217	229.36	6	130	0	Open
P-29	J-54	J-201	282.85	6	43	0	Open
P-290	J-385	J-400	651.45	2	130	0	Open
P-291	J-364	J-401	766.09	2	40	0	Open
P-292	J-402	J-209	762.239	6	40	0	Open
P-293	J-403	J-404	231.729	4	100	0	Open
P-294	J-405	J-192	7.32	6	40	0	Open
P-295	J-406	J-616	16.879	6	40	0	Open
P-296	J-153	J-462	1589.27	10	130	0	Open
P-297	J-409	J-377	98.15	6	40	0	Open
P-298	J-357	J-410	280.85	8	130	0	Open
P-299	J-411	J-59	648.179	6	40	0	Open
P-3	J-5	J-6	4644.659245	6	140	0	Open
P-30	J-55	J-56	261.63	8	140	0	Open
P-300	J-412	J-411	322.809	6	40	0	Open
P-301	J-411	J-413	523.69	6	40	0	Open
P-302	J-284	J-414	314.149	6	130	0	Open
P-303	J-269	J-195	953.299	6	120	0	Open
P-304	J-22	J-30	594.5	12	130	0	Open
P-305	J-365	J-349	600.549	10	120	0	Open
P-306	J-339	J-415	734.75	6	130	0	Open
P-307	J-416	J-417	44.04	6	40	0	Open
P-308	J-418	J-419	859.179	8	120	0	Open
P-309	J-199	J-420	226.75	6	120	0	Open
P-31	J-57	J-58	380.75	6	40	0	Open
P-310	J-419	J-421	48.13	8	120	0	Open
P-311	J-422	J-342	772.83	6	140	0	Open
P-312	J-272	J-242	265.97	8	140	0	Open
P-313	J-33	J-423	374.22	6	40	0	Open
P-314	J-210	J-25	719.359	6	40	0	Open
P-315	J-193	J-424	24.299	6	40	0	Open
P-316	J-178	J-425	764.76	6	130	0	Open
P-317	J-370	J-339	323.22	8	130	0	Open
P-318	J-254	J-426	309.2	6	120	0	Open
P-319	J-74	J-373	106.069	18	70	0	Open
P-32	J-59	J-60	411.779	8	40	0	Open
P-320	J-188	J-416	224.22	6	40	0	Open
P-321	J-341	J-178	265.929	6	130	0	Open
P-322	J-427	J-422	499.5	6	140	0	Open
P-323	J-428	J-202	553.359	8	70	0	Open
P-324	J-163	J-131	596.46	4	40	0	Open
P-325	J-42	J-341	266.119	6	130	0	Open
P-326	J-423	J-429	40.58	10	120	0	Open
P-327	J-344	J-185	280.589	6	70	0	Open
P-328	J-430	J-260	403.19	8	130	0	Open
P-329	J-431	J-432	453.519	6	40	0	Open
P-33	J-61	J-62	37.759	16	40	0	Open
P-330	J-277	J-433	203.05	6	130	0	Open
P-331	J-215	J-298	403.48	6	40	0	Open
P-332	J-434	J-243	289.41	6	130	0	Open
P-333	J-435	J-436	107.919	2	130	0	Open
P-334	J-433	J-174	223.169	6	130	0	Open
P-335	J-437	J-215	385.89	6	120	0	Open
P-336	J-438	J-311	67.9	8	130	0	Open
P-337	J-25	J-409	449.109	6	40	0	Open
P-338	J-439	J-259	157.3	6	40	0	Open
P-339	J-366	J-423	408.869	10	120	0	Open
P-34	J-63	J-64	82.58	6	130	0	Open
P-340	J-398	J-440	421.089	10	120	0	Open
P-341	J-441	J-442	104.47	2	130	0	Open
P-342	J-443	J-444	1103.579	6	130	0	Open
P-343	J-445	J-32	342.98	2	130	0	Open
P-344	J-446	J-150	335.369	8	130	0	Open
P-345	J-447	J-448	709.09	6	40	0	Open
P-346	J-449	J-4	1112.28	6	120	0	Open
P-347	J-450	J-451	330.32	4	100	0	Open
P-348	J-451	J-452	243.57	2	130	0	Open
P-349	J-248	J-453	156.369	6	140	0	Open
P-35	J-65	J-66	470.57	4	100	0	Open
P-350	J-454	J-724	274.67	8	130	0	Open
P-351	J-456	J-457	188.169	8	130	0	Open
P-352	J-458	J-308	875.02	6	130	0	Open
P-353	J-459	J-270	84.41	6	130	0	Open
P-354	J-191	J-248	536.59	6	140	0	Open
P-355	J-259	J-441	695.96	6	40	0	Open
P-356	J-307	J-458	83.949	6	130	0	Open
P-357	J-173	J-249	250.69	6	140	0	Open
P-358	J-205	J-460	516.169	12	40	0	Open
P-359	J-441	J-282	1303.93	6	40	0	Open
P-36	J-28	J-67	487.559	6	40	0	Open
P-360	J-407	J-431	515.239	6	40	0	Open
P-361	J-232	J-155	908.559	6	130	0	Open
P-362	J-264	J-21	205.25	12	130	0	Open
P-363	J-35	J-553	180.509	6	130	0	Open
P-364	J-463	J-637	1549.55	12	130	0	Open
P-365	J-464	J-155	353.41	6	120	0	Open
P-366	J-465	J-466	530.15	6	40	0	Open
P-367	J-467	J-468	392.779	6	40	0	Open
P-368	J-469	J-470	299.119	4	40	0	Open
P-369	J-471	J-344	628.869	6	70	0	Open
P-37	J-68	J-69	679.02	4	40	0	Open
P-370	J-472	J-17	2070.979	8	140	0	Open
P-371	J-421	J-13	475.779	8	120	0	Open
P-372	J-249	J-473	287.44	6	140	0	Open
P-373	J-223	J-474	633.08	6	40	0	Open
P-374	J-475	J-476	2398.679	8	130	0	Open
P-375	J-477	J-478	926.219	6	130	0	Open
P-376	J-221	J-246	300.309	6	140	0	Open
P-377	J-79	J-479	482.329	4	100	0	Open
P-378	J-179	J-111	538.7	6	130	0	Open
P-379	J-306	J-240	765.34	6	120	0	Open
P-38	J-70	J-60	395.489	6	40	0	Open
P-380	J-470	J-406	644.59	4	40	0	Open
P-381	J-480	J-481	477.44	8	120	0	Open
P-382	J-482	J-314	122.839	8	40	0	Open
P-383	J-740	J-742	834.369	6	130	0	Open
P-384	J-485	J-399	407.48	8	140	0	Open
P-385	J-486	J-31	367.549	6	120	0	Open
P-386	J-487	J-488	50.86	10	120	0	Open
P-387	J-486	J-489	362.119	6	120	0	Open
P-388	J-324	J-469	278.79	6	120	0	Open
P-389	J-139	J-148	168.259	4	100	0	Open
P-39	J-55	J-71	160.149	8	140	0	Open
P-390	J-461	J-490	559.849	6	130	0	Open
P-391	J-229	J-497	602	6	40	0	Open
P-392	J-427	J-491	1199.3	6	140	0	Open
P-393	J-489	J-728	238.479	6	130	0	Open
P-394	J-487	J-493	1604.459	12	120	0	Open
P-395	J-469	J-494	254.61	6	120	0	Open
P-396	J-495	J-324	996.2	8	120	0	Open
P-397	J-23	J-432	881.09	6	130	0	Open
P-398	J-252	J-496	261.13	8	40	0	Open
P-399	J-497	J-417	232.24	6	40	0	Open
P-4	J-3	J-7	519.5	6	130	0	Open
P-40	J-71	J-72	309.029	6	140	0	Open
P-400	J-498	J-499	53.7	6	120	0	Open
P-401	J-428	J-500	57.83	6	40	0	Open
P-402	J-34	J-222	209.3	6	130	0	Open
P-403	J-463	J-363	133.55	12	130	0	Open
P-404	J-501	J-406	699.239	6	40	0	Open
P-405	J-502	J-143	164.6	10	130	0	Open
P-406	J-287	J-353	576.75	4	100	0	Open
P-407	J-267	J-358	33.709	6	40	0	Open
P-408	J-503	J-474	194.289	4	40	0	Open
P-409	J-325	J-378	256.399	8	120	0	Open
P-41	J-73	J-74	31.02	18	70	0	Open
P-410	J-86	J-504	1017.13	6	140	0	Open
P-411	J-387	J-505	488.32	6	120	0	Open
P-412	J-358	J-183	253.339	4	100	0	Open
P-413	J-417	J-501	263.559	6	40	0	Open
P-414	J-495	J-253	684.52	6	40	0	Open
P-415	J-378	J-506	1624.599	12	120	0	Open
P-416	J-381	J-405	6.05	6	40	0	Open
P-417	J-507	J-330	19.54	6	40	0	Open
P-418	J-508	J-498	205.74	2.5	100	0	Open
P-419	J-404	J-405	457.309	4	100	0	Open
P-42	J-75	J-391	1262.5	10	130	0	Open
P-420	J-37	J-48	82.11	8	140	0	Open
P-421	J-509	J-413	701.539	6	40	0	Open
P-422	J-464	J-510	821.789	6	130	0	Open
P-423	J-77	J-511	558.25	4	40	0	Open
P-424	J-278	J-319	77.919	6	120	0	Open
P-425	J-246	J-268	285.51	6	140	0	Open
P-426	J-458	J-270	98.43	6	130	0	Open
P-427	J-30	J-322	239.88	12	130	0	Open
P-428	J-512	J-513	238.259	6	40	0	Open
P-429	J-274	J-514	265.19	10	40	0	Open
P-43	J-77	J-78	10.029	6	40	0	Open
P-430	J-466	J-367	684.84	6	40	0	Open
P-431	J-515	J-430	356.13	8	130	0	Open
P-432	J-731	J-732	1.21	18	70	0	Open
P-433	J-340	J-517	302	6	130	0	Open
P-434	J-419	J-518	444.529	8	120	0	Open
P-435	J-349	J-519	28.94	10	120	0	Open
P-436	J-440	J-515	503.119	8	130	0	Open
P-437	J-227	J-398	412.01	10	130	0	Open
P-438	J-317	J-353	329.109	10	120	0	Open
P-439	J-513	J-290	468.23	6	40	0	Open
P-44	J-79	J-80	355.41	4	100	0	Open
P-440	J-280	J-100	33.659	6	120	0	Open
P-441	J-333	J-746	1148.719	12	130	0	Open
P-442	J-90	J-510	371.89	6	120	0	Open
P-443	J-521	J-729	491.269	6	140	0	Open
P-444	J-521	J-523	430.829	1	130	0	Open
P-445	J-524	J-525	525.02	16	130	0	Open
P-446	J-525	J-526	660	16	130	0	Open
P-447	J-448	J-527	287.059	6	40	0	Open
P-448	J-528	J-529	4043.040627	3	140	0	Open
P-449	J-169	J-167	578.03	1.25	130	0	Open
P-45	J-81	J-82	88.069	2	40	0	Open
P-450	J-530	J-504	378.07	6	140	0	Open
P-451	J-384	J-133	857.799	6	120	0	Open
P-452	J-452	J-445	116.769	4	100	0	Open
P-453	J-347	J-148	276.049	4	100	0	Open
P-454	J-420	J-90	837.39	6	130	0	Open
P-455	J-531	J-437	75.19	6	120	0	Open
P-456	J-532	J-533	359.269	4	40	0	Open
P-457	J-448	J-512	340.619	6	40	0	Open
P-458	J-388	J-534	534.71	6	130	0	Open
P-459	J-112	J-535	5594.303786	6	140	0	Open
P-46	J-83	J-84	790.099	4	100	0	Open
P-460	J-4	J-531	105.11	6	120	0	Open
P-461	J-536	J-537	929.479	2	100	0	Open
P-462	J-532	J-445	367.91	4	40	0	Open
P-463	J-538	J-539	618.349	6	130	0	Open
P-464	J-540	J-541	195.72	1.5	140	0	Open
P-465	J-531	J-292	225.929	6	120	0	Open
P-466	J-542	J-543	1062.099	6	130	0	Open
P-467	J-525	J-542	263.89	12	130	0	Open
P-468	J-544	J-521	57.029	6	140	0	Open
P-469	J-533	J-545	449.13	4	40	0	Open
P-47	J-85	J-86	480.89	6	120	0	Open
P-470	J-546	J-540	245.119	6	140	0	Open
P-471	J-503	J-196	737.95	6	40	0	Open
P-472	J-356	J-50	419.179	8	130	0	Open
P-473	J-38	J-547	509.309	8	130	0	Open
P-474	J-325	J-498	147.63	6	120	0	Open
P-475	J-494	J-325	439.589	6	120	0	Open
P-476	J-548	J-549	190.919	6	40	0	Open
P-477	J-200	J-550	80.51	4	100	0	Open
P-478	J-63	J-551	101.83	6	130	0	Open
P-479	J-367	J-552	283.679	6	40	0	Open
P-48	J-87	J-88	455.39	6	40	0	Open
P-480	J-196	J-253	254.669	6	40	0	Open
P-481	J-465	J-350	466.239	6	40	0	Open
P-482	J-381	J-713	21.18	10	120	0	Open
P-483	J-75	J-153	263.22	10	130	0	Open
P-484	J-416	J-19	275.04	6	40	0	Open
P-485	J-465	J-581	652.14	6	40	0	Open
P-486	J-198	J-449	519.46	6	120	0	Open
P-487	J-474	J-495	117.459	6	40	0	Open
P-488	J-554	J-754	45.93	10	70	0	Open
P-489	J-466	J-210	340.23	6	40	0	Open
P-49	J-89	J-90	445.279	6	120	0	Open
P-490	J-102	J-55	425.459	8	140	0	Open
P-491	J-556	J-557	1118.109	6	140	0	Open
P-492	J-299	J-548	21.659	6	40	0	Open
P-493	J-488	J-558	971.479	8	120	0	Open
P-494	J-4	J-437	181.72	2	130	0	Open
P-495	J-493	J-559	829.289	12	120	0	Open
P-496	J-560	J-85	431.01	6	120	0	Open
P-497	J-561	J-562	294.899	0.75	130	0	Open
P-498	J-558	J-493	547.28	8	120	0	Open
P-499	J-563	J-564	726.2	10	70	0	Open
P-5	J-8	J-3	462.91	2	130	0	Open
P-50	J-91	J-74	106.089	6	130	0	Open
P-500	J-334	J-565	115.01	4	100	0	Open
P-501	J-10	J-528	1429.41	6	140	0	Open
P-502	J-566	J-567	441.14	6	130	0	Open
P-503	J-568	J-569	792.83	6	130	0	Open
P-504	J-570	J-571	346.13	6	40	0	Open
P-505	J-18	J-572	266.399	6	140	0	Open
P-506	J-573	J-186	478.579	12	40	0	Open
P-507	J-116	J-574	108.879	6	40	0	Open
P-508	J-233	J-575	185.57	6	120	0	Open
P-509	J-10	J-576	4848.983395	8	140	0	Open
P-51	J-92	J-93	366.38	8	130	0	Open
P-510	J-200	J-313	70.12	6	120	0	Open
P-511	J-360	J-577	361.089	4	100	0	Open
P-512	J-85	J-578	1127.939	6	130	0	Open
P-513	J-579	J-213	623.46	6	40	0	Open
P-514	J-355	J-402	791.34	4	100	0	Open
P-515	J-564	J-580	287.19	10	70	0	Open
P-516	J-165	J-53	36.29	6	40	0	Closed
P-517	J-346	J-712	851.789	6	120	0	Open
P-518	J-501	J-188	263.1	4	40	0	Open
P-519	J-149	J-83	308.72	4	100	0	Open
P-52	J-94	J-95	351.32	10	40	0	Open
P-520	J-334	J-582	792.979	4	100	0	Open
P-521	J-583	J-584	354.679	6	120	0	Open
P-522	J-11	J-231	213.74	6	120	0	Open
P-523	J-585	J-322	263	8	130	0	Open
P-524	J-263	J-233	237.029	6	120	0	Open
P-525	J-24	J-586	188.419	6	40	0	Open
P-526	J-84	J-402	324.41	6	40	0	Open
P-527	J-587	J-355	81.069	4	100	0	Open
P-528	J-588	J-480	103.779	8	120	0	Open
P-529	J-480	J-301	236.139	8	120	0	Open
P-53	J-96	J-97	145.839	10	120	0	Open
P-530	J-583	J-342	490.66	6	140	0	Open
P-531	J-589	J-590	655.419	2	130	0	Open
P-532	J-591	J-592	879.51	8	120	0	Open
P-533	J-593	J-589	1473.26	6	40	0	Open
P-534	J-114	J-591	299.47	8	120	0	Open
P-535	J-594	J-595	277.429	1.5	130	0	Open
P-536	J-455	J-738	334.04	8	130	0	Open
P-537	J-43	J-597	327.42	4	70	0	Open
P-538	J-82	J-205	51.209	12	40	0	Open
P-539	J-594	J-435	418.049	6	130	0	Open
P-54	J-98	J-99	362.76	6	120	0	Open
P-540	J-207	J-54	139.039	6	40	0	Open
P-541	J-201	J-165	269	6	43	0	Open
P-542	J-286	J-577	279.329	4	100	0	Open
P-543	J-491	J-598	329.26	6	140	0	Open
P-544	J-599	J-600	615.15	6	40	0	Open
P-545	J-371	J-601	333.29	4	100	0	Open
P-546	J-602	J-434	367.709	6	40	0	Open
P-547	J-572	J-737	247.3	6	140	0	Open
P-548	J-603	J-604	225.179	6	130	0	Open
P-549	J-605	J-606	420.109	6	40	0	Open
P-55	J-100	J-101	201.19	6	120	0	Open
P-550	J-607	J-116	430.89	6	120	0	Open
P-551	J-97	J-713	384.649	10	120	0	Open
P-552	J-432	J-609	76.059	6	40	0	Open
P-553	J-123	J-471	266.63	6	70	0	Open
P-554	J-366	J-421	989.64	8	120	0	Open
P-555	J-319	J-225	191.83	6	120	0	Open
P-556	J-320	J-678	1045.199	16	130	0	Open
P-557	J-520	J-198	43.79	6	120	0	Open
P-558	J-420	J-464	376.76	6	120	0	Open
P-559	J-470	J-611	494.049	4	40	0	Open
P-56	J-102	J-103	1249.359	6	130	0	Open
P-560	J-262	J-161	14.939	6	120	0	Open
P-561	J-305	J-506	1540.479	12	120	0	Open
P-562	J-732	J-612	479.299	10	70	0	Open
P-563	J-323	J-502	1392.699	12	130	0	Open
P-564	J-373	J-351	242.199	16	70	0	Open
P-565	J-613	J-614	566.33	6	140	0	Open
P-566	J-592	J-488	233.69	8	120	0	Open
P-567	J-597	J-615	723.419	6	40	0	Open
P-568	J-582	J-287	304.339	6	120	0	Open
P-569	J-407	J-23	368.72	6	40	0	Open
P-57	J-104	J-105	37.95	6	40	0	Open
P-570	J-377	J-181	555.679	6	40	0	Open
P-571	J-78	J-467	145.6	6	40	0	Open
P-572	J-370	J-438	1780.79	10	130	0	Open
P-573	J-222	J-507	203.19	6	40	0	Open
P-574	J-496	J-463	26.54	12	130	0	Open
P-575	J-615	J-304	210.029	6	40	0	Open
P-576	J-616	J-407	15.34	6	40	0	Open
P-577	J-511	J-617	278.07	4	40	0	Open
P-578	J-422	J-613	385.22	6	140	0	Open
P-579	J-618	J-95	936.63	10	40	0	Open
P-58	J-92	J-106	3348.447627	6	140	0	Open
P-580	J-191	J-473	796.539	6	140	0	Open
P-581	J-27	J-52	335.16	8	40	0	Open
P-582	J-496	J-497	11.55	8	40	0	Open
P-583	J-253	J-229	275.769	6	40	0	Open
P-584	J-86	J-170	708.809	6	120	0	Open
P-585	J-504	J-578	714.7	6	140	0	Open
P-586	J-620	J-592	44.06	2	130	0	Open
P-587	J-575	J-607	234.649	6	120	0	Open
P-588	J-491	J-621	603.799	6	140	0	Open
P-589	J-622	J-78	337.809	4	100	0	Open
P-59	J-107	J-73	257.299	18	70	0	Open
P-590	J-596	J-332	285.16	12	130	0	Open
P-591	J-332	J-623	628.82	12	130	0	Open
P-592	J-273	J-255	241.32	6	140	0	Open
P-593	J-624	J-241	75.169	6	140	0	Open
P-594	J-605	J-514	602.33	6	40	0	Open
P-595	J-72	J-41	277.5	6	140	0	Open
P-596	J-625	J-618	268.69	10	40	0	Open
P-597	J-623	J-626	85.19	12	130	0	Open
P-598	J-296	J-271	52.36	8	140	0	Open
P-599	J-268	J-627	71.72	6	140	0	Open
P-6	J-9	J-727	4890.483745	8	140	0	Open
P-60	J-56	J-108	764.729	8	140	0	Open
P-600	J-53	J-88	302.98	6	40	0	Open
P-601	J-304	J-628	233.35	6	40	0	Open
P-602	J-206	J-615	81.48	6	40	0	Open
P-603	J-473	J-246	299.429	6	140	0	Open
P-604	J-430	J-361	225.289	6	130	0	Open
P-605	J-39	J-603	126.68	6	130	0	Open
P-606	J-629	J-630	218.679	6	120	0	Open
P-607	J-552	J-581	273.23	6	40	0	Open
P-608	J-142	J-511	1007.369	2	130	0	Open
P-609	J-94	J-564	2322.87	2	40	0	Open
P-61	J-56	J-109	418.579	3	140	0	Open
P-610	J-468	J-484	418.809	6	40	0	Open
P-611	J-632	J-560	746.84	3	100	0	Open
P-612	J-622	J-633	772	2	130	0	Open
P-613	J-593	J-602	445.14	6	130	0	Open
P-614	J-73	J-748	3941.646627	8	140	0	Open
P-615	J-394	J-187	886.989	12	40	0	Open
P-616	J-635	J-605	265.529	6	40	0	Open
P-617	J-554	J-82	175.089	12	70	0	Open
P-618	J-468	J-434	29.639	6	130	0	Open
P-619	J-642	J-107	694.359	12	40	0	Open
P-62	J-110	J-111	306.859	6	130	0	Open
P-620	J-446	J-716	377.25	6	130	0	Open
P-621	J-53	J-635	261.76	10	40	0	Open
P-622	J-636	J-637	167.1	16	130	0	Open
P-623	J-616	J-642	14.579	6	40	0	Open
P-624	J-283	J-228	965.59	6	130	0	Open
P-625	J-158	J-573	73.959	12	130	0	Open
P-626	J-311	J-294	538.849	8	130	0	Open
P-627	J-638	J-447	124.379	6	40	0	Open
P-628	J-639	J-216	15.92	6	120	0	Open
P-629	J-640	J-620	337	4	100	0	Open
P-63	J-76	J-312	253.759	6	130	0	Open
P-630	J-426	J-641	2360.189	6	120	0	Open
P-631	J-586	J-600	692.64	6	40	0	Open
P-632	J-589	J-570	17.659	6	40	0	Open
P-633	J-310	J-482	238.029	8	40	0	Open
P-634	J-396	J-320	1608.229	12	130	0	Open
P-635	J-643	J-644	459.399	8	140	0	Open
P-636	J-645	J-644	295.38	6	130	0	Open
P-637	J-538	J-646	287.769	6	130	0	Open
P-638	J-647	J-648	786.19	6	140	0	Open
P-639	J-649	J-650	92.769	6	130	0	Open
P-64	J-114	J-115	182.009	4	100	0	Open
P-640	J-536	J-651	419.929	2	100	0	Open
P-641	J-1	J-321	3351.414927	8	140	0	Open
P-642	J-653	J-654	698.45	6	130	0	Open
P-643	J-279	J-655	120.769	6	40	0	Open
P-644	J-161	J-656	72.86	6	120	0	Open
P-645	J-446	J-657	130.139	6	130	0	Open
P-646	J-645	J-538	342.019	6	130	0	Open
P-647	J-440	J-92	56.9	8	130	0	Open
P-648	J-510	J-303	33.31	6	120	0	Open
P-649	J-652	J-658	429.059	8	140	0	Open
P-65	J-116	J-77	576.94	6	40	0	Open
P-650	J-647	J-388	334.359	6	130	0	Open
P-651	J-133	J-659	3697.470627	6	140	0	Open
P-652	J-649	J-660	442.72	6	130	0	Open
P-653	J-661	J-594	360.25	6	130	0	Open
P-654	J-661	J-662	1050.979	10	130	0	Open
P-655	J-650	J-663	394.269	6	140	0	Open
P-656	J-664	J-753	3323.274927	6	140	0	Open
P-657	J-665	J-472	339.089	8	140	0	Open
P-658	J-354	J-487	673.039	10	120	0	Open
P-659	J-497	J-19	7.989	6	40	0	Open
P-66	J-96	J-117	89.19	8	120	0	Open
P-660	J-77	J-99	323.809	6	120	0	Open
P-661	J-571	J-631	83.94	6	40	0	Open
P-662	J-276	J-666	233.16	12	130	0	Open
P-663	J-655	J-570	28.829	6	40	0	Open
P-664	J-566	J-75	190.119	10	130	0	Open
P-665	J-516	J-741	516.94	8	200	0	Open
P-666	J-334	J-640	571.71	4	100	0	Open
P-667	J-131	J-118	487.54	4	40	0	Open
P-668	J-151	J-439	386.04	6	40	0	Open
P-669	J-618	J-151	12.89	6	40	0	Open
P-67	J-118	J-119	630.94	6	40	0	Open
P-670	J-648	J-650	56.43	6	140	0	Open
P-671	J-66	J-667	35.069	4	100	0	Open
P-672	J-352	J-503	483.209	6	40	0	Open
P-673	J-301	J-275	69.919	12	120	0	Open
P-674	J-729	J-522	296.299	6	140	0	Open
P-675	J-271	J-643	413.51	8	140	0	Open
P-676	J-623	J-668	163.97	8	130	0	Open
P-677	J-424	J-726	161.949	6	40	0	Open
P-678	J-670	J-671	185.44	6	130	0	Open
P-679	J-410	J-672	1514.689	8	130	0	Open
P-68	J-120	J-121	119.959	6	130	0	Open
P-680	J-673	J-255	88.26	6	140	0	Open
P-681	J-533	J-32	360.709	4	40	0	Open
P-682	J-312	J-446	1479.339	6	155	0	Open
P-683	J-530	J-556	218.639	6	140	0	Open
P-684	J-603	J-643	588.58	6	130	0	Open
P-685	J-669	J-674	1323.77	6	40	0	Open
P-686	J-631	J-67	525.409	6	40	0	Open
P-687	J-462	J-408	483.089	10	130	0	Open
P-688	J-20	J-605	388.589	6	40	0	Open
P-689	J-318	J-278	24.299	4	40	0	Open
P-69	J-122	J-49	968.65	6	130	0	Open
P-690	J-78	J-129	473.88	6	40	0	Open
P-691	J-450	J-486	27.19	6	120	0	Open
P-692	J-509	J-412	271.899	6	40	0	Open
P-693	J-675	J-309	407.73	6	40	0	Open
P-694	J-31	J-676	61.029	6	120	0	Open
P-695	J-460	J-305	300.35	12	40	0	Open
P-696	J-676	J-561	17.139	4	100	0	Open
P-697	J-309	J-638	66.669	6	40	0	Open
P-698	J-413	J-119	286.01	6	40	0	Open
P-699	J-630	J-677	429.059	4	100	0	Open
P-7	J-11	J-12	260.32	6	40	0	Closed
P-70	J-123	J-124	346.279	6	70	0	Open
P-700	J-461	J-427	495.209	6	130	0	Open
P-701	J-553	J-608	677.09	6	130	0	Open
P-702	J-252	J-635	607.359	8	40	0	Open
P-703	J-679	J-597	345.25	6	120	0	Open
P-704	J-635	J-274	600.599	10	40	0	Open
P-705	J-563	J-94	232.05	10	40	0	Open
P-706	J-152	J-680	1336.739	6	40	0	Open
P-707	J-297	J-625	107.019	8	40	0	Open
P-708	J-243	J-681	407.72	6	130	0	Open
P-709	J-225	J-489	434.48	6	120	0	Open
P-71	J-125	J-126	1309.979	6	130	0	Open
P-710	J-625	J-258	67.419	8	40	0	Open
P-711	J-599	J-563	57.02	10	40	0	Open
P-712	J-682	J-64	126.62	6	130	0	Open
P-713	J-575	J-607	1057.02	6	120	0	Open
P-714	J-528	J-751	4343.919895	6	140	0	Open
P-715	J-684	J-622	62.84	2	130	0	Open
P-716	J-574	J-593	219.559	6	130	0	Open
P-717	J-47	J-9	324.89	12	130	0	Open
P-718	J-683	J-685	87.019	8	140	0	Open
P-719	J-460	J-628	327.799	6	130	0	Open
P-72	J-127	J-128	26.85	6	120	0	Open
P-720	J-134	J-114	197.83	4	100	0	Open
P-721	J-669	J-581	469.29	6	40	0	Open
P-722	J-557	J-556	1121.3	6	140	0	Open
P-723	J-60	J-182	276.269	8	40	0	Open
P-724	J-652	J-752	4091.364627	4	140	0	Open
P-725	J-687	J-569	350.679	6	130	0	Open
P-726	J-658	J-664	1308.989	8	140	0	Open
P-727	J-41	J-647	44.18	6	140	0	Open
P-728	J-653	J-375	459.059	10	120	0	Open
P-729	J-294	J-150	760.52	8	200	0	Open
P-73	J-129	J-130	67.12	6	130	0	Open
P-730	J-648	J-649	958.32	6	130	0	Open
P-731	J-244	J-629	931.44	6	120	0	Open
P-732	J-132	J-509	174.72	6	40	0	Open
P-733	J-412	J-571	707.14	6	40	0	Open
P-734	J-675	J-343	512.4	6	70	0	Open
P-735	J-688	J-689	457.429	6	40	0	Open
P-736	J-689	J-618	323.339	6	40	0	Open
P-737	J-62	J-636	293.589	16	120	0	Open
P-738	J-688	J-251	234.05	10	40	0	Open
P-739	J-225	J-532	240.199	4	40	0	Open
P-74	J-131	J-132	91.239	4	40	0	Open
P-740	J-61	J-27	465.01	8	40	0	Open
P-741	J-291	J-690	848.049	6	40	0	Open
P-742	J-689	J-691	400.299	4	40	0	Open
P-743	J-514	J-688	140.13	10	40	0	Open
P-744	J-658	J-692	3543.825627	4	140	0	Open
P-745	J-396	J-44	1320.569	12	130	0	Open
P-746	J-412	J-61	8.39	8	40	0	Open
P-747	J-693	J-573	951.33	8	70	0	Open
P-748	J-105	J-690	269.19	6	40	0	Open
P-749	J-224	J-318	171.5	4	100	0	Open
P-75	J-133	J-134	425.14	8	120	0	Open
P-750	J-362	J-548	204.919	4	40	0	Open
P-751	J-390	J-365	913.14	10	120	0	Open
P-752	J-64	J-29	291.42	6	130	0	Open
P-753	J-282	J-734	218.179	6	40	0	Open
P-754	J-227	J-653	188.75	10	120	0	Open
P-755	J-687	J-568	457.07	6	130	0	Open
P-756	J-660	J-694	336.6	6	130	0	Open
P-757	J-665	J-687	320.579	6	130	0	Open
P-758	J-670	J-655	279.149	6	130	0	Open
P-759	J-664	J-695	3537.057627	8	140	0	Open
P-76	J-135	J-136	133.029	2	100	0	Open
P-760	J-549	J-277	305.779	6	40	0	Open
P-761	J-32	J-696	114.339	2	130	0	Open
P-762	J-629	J-299	452.82	6	120	0	Open
P-763	J-156	J-315	262.2	6	130	0	Open
P-764	J-697	J-199	595.979	6	130	0	Open
P-765	J-67	J-87	504.959	6	40	0	Open
P-766	J-132	J-670	317.589	6	130	0	Open
P-767	J-666	J-374	1348.939	10	130	0	Open
P-768	J-678	J-524	189.8	16	130	0	Open
P-769	J-445	J-676	315.48	4	100	0	Open
P-77	J-137	J-138	580.239	6	130	0	Open
P-770	J-54	J-252	251.429	8	40	0	Open
P-771	J-451	J-224	431.6	4	100	0	Open
P-772	J-526	J-226	2056.969	16	130	0	Open
P-773	J-345	J-479	707.429	6	120	0	Open
P-774	J-597	J-238	281.95	6	120	0	Open
P-775	J-300	J-661	219.32	6	130	0	Open
P-776	J-479	J-348	171.429	6	120	0	Open
P-777	J-512	J-105	279.859	6	40	0	Open
P-778	J-630	J-397	168.399	6	120	0	Open
P-779	J-672	J-357	931.28	8	130	0	Open
P-78	J-139	J-140	401.42	4	100	0	Open
P-780	J-698	J-699	876.969	8	130	0	Open
P-781	J-698	J-164	153.449	16	130	0	Open
P-782	J-700	J-110	496.25	6	130	0	Open
P-783	J-111	J-645	250.759	6	130	0	Open
P-784	J-234	J-410	476.609	8	130	0	Open
P-785	J-321	J-634	4710.590245	8	140	0	Open
P-786	J-701	J-702	93.379	6	70	0	Open
P-787	J-302	J-46	1837.3	12	130	0	Open
P-788	J-672	J-234	356.839	8	130	0	Open
P-789	J-645	J-703	137.479	6	130	0	Open
P-79	J-141	J-142	1069.31	2	130	0	Open
P-790	J-704	J-705	213.639	6	40	0	Open
P-791	J-291	J-500	503.269	4	40	0	Open
P-792	J-524	J-698	1553.28	16	130	0	Open
P-793	J-706	J-386	759.599	6	70	0	Open
P-794	J-290	J-57	325.709	8	40	0	Open
P-795	J-211	J-288	367.559	10	70	0	Open
P-796	J-527	J-546	575.59	6	40	0	Open
P-797	J-706	J-211	343.6	10	70	0	Open
P-798	J-634	J-652	4290.882895	8	140	0	Open
P-799	J-704	J-707	256.369	6	130	0	Open
P-8	J-13	J-14	362.309	8	120	0	Open
P-80	J-143	J-96	1794.3	10	120	0	Open
P-800	J-638	J-471	859.89	6	70	0	Open
P-801	J-580	J-708	480.26	10	70	0	Open
P-802	J-202	J-693	299.19	8	70	0	Open
P-803	J-708	J-612	1198.66	10	70	0	Open
P-804	J-500	J-47	18.219	4	40	0	Open
P-805	J-185	J-701	1266.39	6	70	0	Open
P-806	J-24	J-704	143.3	6	40	0	Open
P-807	J-58	J-428	98.209	8	40	0	Open
P-808	J-395	J-709	268.23	10	40	0	Open
P-809	J-709	J-708	7.26	10	40	0	Open
P-81	J-144	J-145	186.089	6	130	0	Open
P-810	J-705	J-609	930.76	6	40	0	Open
P-811	J-709	J-706	483.309	10	70	0	Open
P-812	J-701	J-693	114.47	6	70	0	Open
P-813	J-710	J-8	203.889	2	130	0	Open
P-814	J-678	J-711	710.45	6	130	0	Open
P-815	J-542	J-1	2172.86	12	130	0	Open
P-816	J-333	J-527	1492.91	8	130	0	Open
P-817	J-557	J-176	434.809	6	140	0	Open
P-818	J-712	J-507	869.08	6	120	0	Open
P-819	J-644	J-744	643.159	8	140	0	Open
P-82	J-22	J-146	39.819	6	130	0	Open
P-820	J-743	J-544	59.189	6	140	0	Open
P-821	J-399	J-443	335.359	8	140	0	Open
P-822	J-391	J-555	863.419	10	130	0	Open
P-823	J-740	J-555	229.119	6	130	0	Open
P-824	J-192	J-679	323.16	6	120	0	Open
P-825	J-493	J-536	188.059	2	100	0	Open
P-826	J-559	J-300	298.119	12	120	0	Open
P-827	J-16	J-718	388.359	2	70	0	Open
P-828	J-666	J-719	3608.967927	6	130	0	Open
P-829	J-15	J-720	384.23	2	70	0	Open
P-83	J-130	J-147	254.94	6	130	0	Open
P-830	J-317	J-37	463.089	8	140	0	Open
P-831	J-424	J-206	526.57	6	40	0	Open
P-832	J-739	J-554	299.39	10	70	0	Open
P-833	J-385	J-712	18.04	6	120	0	Open
P-834	J-713	J-429	436.899	10	120	0	Open
P-835	J-721	J-723	28.37	10	120	0	Open
P-836	J-739	J-726	14.05	10	120	0	Open
P-837	J-33	J-721	401.959	6	40	0	Open
P-838	J-722	J-193	27.79	6	40	0	Open
P-839	J-723	J-713	434.709	10	120	0	Open
P-84	J-101	J-127	118.669	6	120	0	Open
P-840	J-723	J-722	20.209	10	120	0	Open
P-841	J-726	J-721	189.029	10	120	0	Open
P-842	J-669	J-159	140.979	6	40	0	Open
P-843	J-608	J-461	342.32	6	130	0	Open
P-844	J-619	J-567	279.369	6	40	0	Open
P-845	J-724	J-733	571.609	8	130	0	Open
P-846	J-728	J-492	34.439	6	120	0	Open
P-847	J-728	J-452	33	4	100	0	Open
P-848	J-280	J-99	760.58	6	120	0	Open
P-849	J-730	J-112	5077.068895	8	140	0	Open
P-85	J-148	J-149	513.88	4	100	0	Open
P-850	J-729	J-730	241.059	8	140	0	Open
P-851	J-731	O-Pump-2	1.19	12	70	0	Open
P-852	O-Pump-1	J-731	1.259	12	70	0	Open
P-853	J-251	J-483	325.929	10	40	0	Open
P-854	J-735	I-Pump-1	1.169	12	70	0	Open
P-855	J-610	J-726	435.51	6	40	0	Open
P-856	R1	J-735	54.95	18	70	0	Open
P-857	J-725	J-221	421.94	6	140	0	Open
P-858	J-734	J-736	436.739	6	40	0	Open
P-859	J-736	J-675	191.009	6	40	0	Open
P-86	J-150	J-108	439.63	8	140	0	Open
P-860	J-733	J-455	1185.18	8	130	0	Open
P-861	J-733	J-167	739.549	12	130	0	Open
P-863	J-374	J-566	394.6	10	130	0	Open
P-864	J-113	J-308	475.779	6	140	0	Open
P-865	J-727	J-747	4718.274895	8	140	0	Open
P-866	J-555	J-516	417.67	8	200	0	Open
P-867	J-483	J-599	364.39	10	40	0	Open
P-868	J-484	J-717	315.119	6	40	0	Open
P-869	J-50	J-663	1250.28	6	140	0	Open
P-87	J-151	J-152	938.119	6	40	0	Open
P-870	J-740	J-742	1073.04	6	130	0	Open
P-871	J-716	J-76	494.649	6	130	0	Open
P-872	J-741	J-715	586.07	10	130	0	Open
P-873	J-741	J-742	290.39	6	130	0	Open
P-874	J-717	J-631	322.75	6	40	0	Open
P-875	J-760	J-42	898.539	6	130	0	Open
P-876	J-745	J-302	289.63	12	130	0	Open
P-877	J-743	J-745	18.54	12	130	0	Open
P-878	J-744	J-477	158.47	8	140	0	Open
P-879	J-477	J-485	90.12	8	140	0	Open
P-88	J-146	J-29	557.83	6	130	0	Open
P-880	J-502	J-476	496.2	8	130	0	Open
P-881	J-476	J-456	295.489	8	130	0	Open
P-882	J-456	J-585	687.359	8	130	0	Open
P-883	J-585	J-475	194.679	8	130	0	Open
P-884	J-475	J-714	215.169	8	130	0	Open
P-885	J-665	J-443	615.95	8	140	0	Open
P-886	J-747	J-10	4928.832895	8	140	0	Open
P-887	J-745	J-746	74.68	12	130	0	Open
P-888	J-748	J-750	4667.423245	8	140	0	Open
P-889	J-540	J-749	157.229	6	140	0	Open
P-89	J-153	J-619	473.739	10	130	0	Open
P-890	J-749	J-544	21.27	6	140	0	Open
P-891	J-750	J-683	4499.648395	8	140	0	Open
P-892	J-751	J-683	5049.723745	6	140	0	Open
P-893	J-752	J-686	3790.284927	4	140	0	Open
P-894	J-753	J-5	4677.393895	6	140	0	Open
P-9	J-15	J-16	331.26	4	70	0	Open
P-90	J-155	J-125	760.4	6	130	0	Open
P-903	J-738	J-596	198.889	12	130	0	Open
P-904	J-737	J-583	558.609	6	140	0	Open
P-905	J-373	J-619a	15.8	18	70	0	Open
P-906	J-761	J-619a	9.22	18	70	0	CV
P-907	O-AV-2	J-761	2.23	18	70	0	Open
P-908	J-619	J-154	1379.989	10	130	0	Open
P-909	I-Pump-2	J-735	1.299	12	70	0	Open
P-91	J-59	J-52	353.47	12	40	0	Open
P-911	J-619a	I-AV-2	2.25	18	70	0	Open
P-912	J-572	J-621	575.94	6	140	0	Closed
P-92	J-156	J-157	372.839	6	130	0	Open
P-93	J-9	J-158	1719.109	12	130	0	Open
P-94	J-159	J-610	608.02	6	40	0	Open
P-95	J-160	J-161	10.18	6	120	0	Open
P-96	J-101	J-120	359.32	6	40	0	Open
P-97	J-160	J-162	126.589	2	130	0	Open
P-98	J-147	J-121	27.389	6	130	0	Open
P-99	J-127	J-163	65.22	6	120	0	Open


[PUMPS]
;ID              	Node1           	Node2           	Parameters
 ~@Pump-1        	I-Pump-1        	O-Pump-1        	HEAD P4	SPEED 1	;
 ~@Pump-2        	I-Pump-2        	O-Pump-2        	HEAD P2	SPEED 0.93	;

[VALVES]
;ID              	Node1           	Node2           	Diameter    	Type	Setting     	MinorLoss   
 ~@AV-2          	I-AV-2          	O-AV-2          	1000        	TCV 	9.89391E+07 	0           	;

[TAGS]

[DEMANDS]
;Junction        	Demand      	Pattern         	Category

[STATUS]
;ID              	Status/Setting
 ~@Pump-2        	0.93
 ~@Pump-2        	Closed

[PATTERNS]
;ID              	Multipliers
;
 11              	1           	0.439       	1.75        	1.7         	1.779       	2.339       
 11              	1.97        	1.269       	3.009       	1.529       	2.049       
;
 1               	1           	4.8         	4.69        	3.829       	2.99        	4.98        
 1               	2.67        	6.5         	3.339       	5.579       	4.36        
;
 2               	1           	3.599       	1.169       	0.959       	0.99        	1.23        
 2               	1.1         	2.799       	0.819       	1.389       	1.08        
;
 3               	1           
;
 ENRG1           	1           	1           	1           	1           	1           	1           
 ENRG1           	1           	1           	1           	1           
; Reservoir grade change pattern data
 Res1            	0.996       	0.995       	0.998       	0.998       	0.995       	0.999       
 Res1            	0.996       	0.995       	0.995       	0.995       
;
 Res2            	0.998       	1           	0.996       	0.996       	1           	0.996       
 Res2            	0.999       	1.001       	1.004       	1.003       
;
 Res3            	1           	1           	1           	1           	1           	0.998       
 Res3            	1           	1           	1           	1           
;
 Res4            	0.99        	0.991       	0.989       	0.988       	0.991       	0.987       
 Res4            	0.99        	0.991       	0.992       	0.991       

[CURVES]
;ID              	X-Value     	Y-Value
;PUMP: PUMP: PUMP: -------------------------------------------------------------------------------
 P2              	0           	472         
 P2              	500         	436         
 P2              	1000        	400         
 P2              	1500        	368         
 P2              	2000        	352         
 P2              	2400        	344         
 P2              	2500        	336         
 P2              	2750        	320         
 P2              	3000        	296         
 P2              	3250        	264         
 P2              	3500        	232         
 P2              	3750        	192         
;PUMP: PUMP: PUMP: 
 P3              	0           	118         
 P3              	100         	116         
 P3              	200         	113         
 P3              	300         	110         
 P3              	400         	104         
 P3              	500         	98          
 P3              	600         	88          
 P3              	700         	74          
 P3              	775         	56          
;PUMP: PUMP: PUMP: 
 P4              	1850        	306.923     
 P4              	2020        	293.076     
 P4              	2250        	283.846     
 P4              	2450        	274.846     
 P4              	2500        	270.923     
 P4              	2550        	268.615     
 P4              	2600        	268.153     
 P4              	2650        	266.769     
 P4              	3000        	259.153     
 P4              	3050        	257.538     
 P4              	3100        	256.615     
;PUMP: PUMP: PUMP: 
 PE2             	0           	0           
 PE2             	500         	0           
 PE2             	1000        	0           
 PE2             	1500        	0           
 PE2             	2000        	0           
 PE2             	2400        	0           
 PE2             	2500        	0           
 PE2             	2750        	0           
 PE2             	3000        	0           
 PE2             	3250        	0           
 PE2             	3500        	0           
 PE2             	3750        	0           
;PUMP: PUMP: PUMP: 
 PE3             	0           	0           
 PE3             	100         	33          
 PE3             	200         	53          
 PE3             	300         	66          
 PE3             	400         	73          
 PE3             	500         	78          
 PE3             	600         	78          
 PE3             	700         	71          
 PE3             	775         	58          
;PUMP: PUMP: PUMP: 
 PE4             	1850        	0           
 PE4             	2020        	0           
 PE4             	2250        	0           
 PE4             	2450        	0           
 PE4             	2500        	0           
 PE4             	2550        	0           
 PE4             	2600        	0           
 PE4             	2650        	0           
 PE4             	3000        	0           
 PE4             	3050        	0           
 PE4             	3100        	0           

[CONTROLS]



[RULES]



[ENERGY]
 Global Efficiency  	75
 Global Price       	0
 Demand Charge      	0

[EMITTERS]
;Junction        	Coefficient

[QUALITY]
;Node            	InitQual
 R1              	0
 T-1             	0
 T-2             	0
 T-3             	0

[SOURCES]
;Node            	Type        	Quality     	Pattern

[REACTIONS]
;Type     	Pipe/Tank       	Coefficient


[REACTIONS]
 Order Bulk            	0
 Order Tank            	0
 Order Wall            	0
 Global Bulk           	0
 Global Wall           	0
 Limiting Potential    	0
 Roughness Correlation 	0

[MIXING]
;Tank            	Model

[TIMES]
 Duration           	0:00 
 Hydraulic Timestep 	1:00 
 Quality Timestep   	0:05 
 Pattern Timestep   	1:00 
 Pattern Start      	0:00 
 Report Timestep    	1:00 
 Report Start       	0:00 
 Start ClockTime    	12 am
 Statistic          	NONE

[REPORT]
 Status             	Full
 Summary            	No
 Page               	0

[OPTIONS]
 Units              	GPM
 Headloss           	H-W
 Specific Gravity   	1
 Viscosity          	1
 Trials             	60
 Accuracy           	0.001
 CHECKFREQ          	2
 MAXCHECK           	10
 DAMPLIMIT          	0
 Unbalanced         	Continue 10
 Pattern            	1
 Demand Multiplier  	1.0
 Emitter Exponent   	0.5
 Quality            	AGE mg/L
 Diffusivity        	0.05
 Tolerance          	0.01

[COORDINATES]
;Node            	X-Coord           	Y-Coord
O-AV-2          	3967974.420       	3699307.000       
J-1             	3958361.900       	3704749.000       
J-10            	3994961.560       	3688361.000       
J-100           	3964974.950       	3703322.000       
J-101           	3965000.790       	3703123.000       
J-102           	3960833.080       	3694663.000       
J-103           	3959768.810       	3694934.000       
J-104           	3971857.250       	3705730.000       
J-105           	3971888.420       	3705709.000       
J-106           	3956933.140       	3700119.000       
J-107           	3967765.240       	3699522.000       
J-108           	3960003.270       	3693827.000       
J-109           	3960385.090       	3693886.000       
J-11            	3967902.160       	3704124.000       
J-110           	3962315.100       	3694632.000       
J-111           	3962621.820       	3694623.000       
J-112           	3980202.650       	3716238.000       
J-113           	3964025.610       	3695756.000       
J-114           	3958704.060       	3695874.000       
J-115           	3958686.150       	3695693.000       
J-116           	3965476.290       	3704662.000       
J-117           	3962529.570       	3697424.000       
J-118           	3965488.340       	3702162.000       
J-119           	3965532.600       	3701574.000       
J-12            	3968043.580       	3703906.000       
J-120           	3965351.280       	3703166.000       
J-121           	3965347.910       	3703286.000       
J-122           	3961831.610       	3695251.000       
J-123           	3971779.010       	3704805.000       
J-124           	3972056.900       	3704598.000       
J-125           	3958325.990       	3696899.000       
J-126           	3959632.890       	3696810.000       
J-127           	3964993.290       	3703012.000       
J-128           	3964979.200       	3702989.000       
J-129           	3965315.390       	3703614.000       
J-13            	3961691.840       	3697636.000       
J-130           	3965355.680       	3703566.000       
J-131           	3965516.720       	3702649.000       
J-132           	3965594.180       	3702600.000       
J-133           	3958756.760       	3696495.000       
J-134           	3958721.790       	3696072.000       
J-135           	3964366.590       	3705071.000       
J-136           	3964407.660       	3705198.000       
J-137           	3957948.680       	3698346.000       
J-138           	3958512.890       	3698482.000       
J-139           	3962293.950       	3701298.000       
J-14            	3961403.300       	3697417.000       
J-140           	3962266.880       	3700978.000       
J-141           	3964746.800       	3705088.000       
J-142           	3965587.610       	3704652.000       
J-143           	3961165.240       	3696351.000       
J-144           	3962727.360       	3693326.000       
J-145           	3962910.830       	3693357.000       
J-146           	3960676.620       	3698760.000       
J-147           	3965349.340       	3703313.000       
J-148           	3962454.250       	3701349.000       
J-149           	3962592.150       	3700854.000       
J-15            	3962454.780       	3696822.000       
J-150           	3959937.130       	3693393.000       
J-151           	3968492.610       	3703094.000       
J-152           	3969265.020       	3702565.000       
J-153           	3956885.780       	3690740.000       
J-154           	3958720.180       	3690800.000       
J-155           	3958707.400       	3697201.000       
J-156           	3971186.690       	3703199.000       
J-157           	3971204.980       	3703499.000       
J-158           	3971886.860       	3703185.000       
J-159           	3964155.140       	3698836.000       
J-16            	3962175.400       	3696644.000       
J-160           	3964827.540       	3705341.000       
J-161           	3964834.550       	3705343.000       
J-162           	3964789.730       	3705220.000       
J-163           	3965051.090       	3702982.000       
J-164           	3962202.190       	3704396.000       
J-165           	3967189.130       	3702065.000       
J-166           	3966266.630       	3707642.000       
J-167           	3966655.050       	3707825.000       
J-168           	3966418.740       	3708601.000       
J-169           	3966479.230       	3708375.000       
J-17            	3964918.900       	3690587.000       
J-170           	3966986.360       	3710878.000       
J-171           	3966944.270       	3710375.000       
J-172           	3964083.360       	3697216.000       
J-173           	3964380.140       	3697216.000       
J-174           	3967143.230       	3704497.000       
J-175           	3967065.390       	3704443.000       
J-176           	3967016.470       	3710371.000       
J-177           	3967048.950       	3710848.000       
J-178           	3961880.330       	3693944.000       
J-179           	3962675.400       	3694087.000       
J-18            	3966105.700       	3688605.000       
J-180           	3965452.550       	3701879.000       
J-181           	3966147.000       	3701292.000       
J-182           	3966195.010       	3701354.000       
J-183           	3968113.910       	3704230.000       
J-184           	3968261.290       	3704308.000       
J-185           	3971426.150       	3703949.000       
J-186           	3971539.760       	3702852.000       
J-187           	3971089.750       	3702258.000       
J-188           	3967726.730       	3701036.000       
J-189           	3967735.710       	3701041.000       
J-19            	3967326.910       	3701315.000       
J-190           	3963325.600       	3696189.000       
J-191           	3963587.860       	3696537.000       
J-192           	3962825.740       	3697804.000       
J-193           	3963186.480       	3698079.000       
J-194           	3963332.080       	3696148.000       
J-195           	3966111.770       	3708274.000       
J-196           	3966543.680       	3701090.000       
J-197           	3966548.510       	3701097.000       
J-198           	3966273.790       	3707618.000       
J-199           	3958596.310       	3698142.000       
J-2             	3956329.590       	3702715.000       
J-20            	3967439.260       	3701484.000       
J-200           	3964243.680       	3705367.000       
J-201           	3967042.870       	3701839.000       
J-202           	3972596.850       	3704220.000       
J-203           	3971303.490       	3701423.000       
J-204           	3971713.670       	3700916.000       
J-205           	3963607.080       	3697740.000       
J-206           	3963503.010       	3697660.000       
J-207           	3966811.470       	3701488.000       
J-208           	3965483.350       	3703567.000       
J-209           	3963971.370       	3700046.000       
J-21            	3960684.870       	3699172.000       
J-210           	3964616.520       	3700304.000       
J-211           	3970823.290       	3700737.000       
J-212           	3971143.880       	3701182.000       
J-213           	3969732.090       	3706360.000       
J-214           	3969608.860       	3706260.000       
J-215           	3966932.540       	3705623.000       
J-216           	3966547.390       	3705386.000       
J-217           	3960460.400       	3698774.000       
J-218           	3960580.030       	3698626.000       
J-219           	3965273.850       	3703565.000       
J-22            	3960714.480       	3698748.000       
J-220           	3958836.950       	3691396.000       
J-221           	3964070.210       	3696327.000       
J-222           	3962406.980       	3699684.000       
J-223           	3965677.660       	3700034.000       
J-224           	3968401.590       	3704513.000       
J-225           	3968390.750       	3704566.000       
J-226           	3961057.650       	3701590.000       
J-227           	3961108.690       	3699934.000       
J-228           	3971086.000       	3703234.000       
J-229           	3966990.950       	3700806.000       
J-23            	3967851.480       	3700480.000       
J-230           	3960327.250       	3698687.000       
J-231           	3968094.230       	3704216.000       
J-232           	3959613.380       	3697133.000       
J-233           	3964737.990       	3704986.000       
J-234           	3960061.160       	3691735.000       
J-235           	3960197.460       	3691841.000       
J-236           	3966707.720       	3707686.000       
J-237           	3963058.210       	3696893.000       
J-238           	3963017.910       	3696886.000       
J-239           	3966888.860       	3703590.000       
J-24            	3968049.210       	3700771.000       
J-240           	3966903.460       	3703597.000       
J-241           	3963373.660       	3695910.000       
J-242           	3963179.910       	3696105.000       
J-243           	3966248.630       	3704068.000       
J-244           	3966693.010       	3704255.000       
J-245           	3963313.970       	3695566.000       
J-246           	3964365.830       	3696379.000       
J-247           	3967184.270       	3704426.000       
J-248           	3963922.400       	3696886.000       
J-249           	3964376.620       	3696966.000       
J-25            	3965224.740       	3700689.000       
J-250           	3970893.670       	3700093.000       
J-251           	3968262.520       	3702312.000       
J-252           	3967092.160       	3701454.000       
J-253           	3966761.820       	3700959.000       
J-254           	3963249.470       	3694709.000       
J-255           	3964382.710       	3697502.000       
J-256           	3967878.600       	3703100.000       
J-257           	3968089.850       	3702961.000       
J-258           	3968299.370       	3703291.000       
J-259           	3968434.920       	3703498.000       
J-26            	3965432.660       	3700387.000       
J-260           	3960344.070       	3699346.000       
J-261           	3959929.670       	3699508.000       
J-262           	3964849.010       	3705339.000       
J-263           	3964807.040       	3705213.000       
J-264           	3960675.590       	3699377.000       
J-265           	3970602.750       	3700902.000       
J-266           	3971156.840       	3700604.000       
J-267           	3967849.760       	3704199.000       
J-268           	3964366.430       	3696093.000       
J-269           	3966096.890       	3709178.000       
J-27            	3966442.960       	3702285.000       
J-270           	3963427.270       	3695556.000       
J-271           	3963283.110       	3695531.000       
J-272           	3963139.090       	3696368.000       
J-273           	3964143.300       	3697519.000       
J-274           	3967761.550       	3702459.000       
J-275           	3956950.680       	3692893.000       
J-276           	3956881.800       	3692839.000       
J-277           	3967507.110       	3704719.000       
J-278           	3968208.030       	3704483.000       
J-279           	3965542.040       	3703182.000       
J-28            	3966470.180       	3702405.000       
J-280           	3964977.030       	3703355.000       
J-281           	3967536.400       	3702603.000       
J-282           	3970021.810       	3704224.000       
J-283           	3970534.720       	3703792.000       
J-284           	3967633.870       	3702745.000       
J-285           	3964336.670       	3705212.000       
J-286           	3959855.170       	3695863.000       
J-287           	3960179.990       	3696059.000       
J-288           	3971156.210       	3700596.000       
J-289           	3960476.240       	3698867.000       
J-29            	3960557.390       	3698240.000       
J-290           	3972217.770       	3705030.000       
J-291           	3972308.510       	3704950.000       
J-292           	3966503.030       	3706094.000       
J-293           	3966372.100       	3706208.000       
J-294           	3959812.860       	3692642.000       
J-295           	3960028.470       	3692567.000       
J-296           	3963272.430       	3695582.000       
J-297           	3968206.470       	3703144.000       
J-298           	3967145.550       	3705281.000       
J-299           	3967227.800       	3705155.000       
J-3             	3966474.790       	3706666.000       
J-30            	3960672.700       	3698155.000       
J-300           	3957527.790       	3693506.000       
J-301           	3957005.800       	3692936.000       
J-302           	3972464.050       	3706560.000       
J-303           	3959554.710       	3697468.000       
J-304           	3963648.540       	3697408.000       
J-305           	3964253.680       	3697713.000       
J-306           	3966768.160       	3704246.000       
J-307           	3963589.040       	3695635.000       
J-308           	3964329.640       	3695615.000       
J-309           	3970913.090       	3705105.000       
J-31            	3969024.130       	3705001.000       
J-310           	3967929.580       	3703173.000       
J-311           	3959597.150       	3692163.000       
J-312           	3959348.570       	3692370.000       
J-313           	3964221.530       	3705301.000       
J-314           	3968148.960       	3703380.000       
J-315           	3971433.820       	3703112.000       
J-316           	3971563.260       	3703259.000       
J-317           	3960851.920       	3696150.000       
J-318           	3968232.050       	3704487.000       
J-319           	3968201.220       	3704536.000       
J-32            	3968611.600       	3705224.000       
J-320           	3960573.940       	3705934.000       
J-321           	3954879.930       	3704941.000       
J-322           	3960685.610       	3697918.000       
J-323           	3960933.560       	3697518.000       
J-324           	3966509.330       	3699725.000       
J-325           	3966683.030       	3699345.000       
J-326           	3958486.060       	3698591.000       
J-327           	3965545.400       	3704873.000       
J-328           	3960192.540       	3710836.000       
J-329           	3962087.660       	3713161.000       
J-33            	3962937.760       	3698418.000       
J-330           	3962190.450       	3699633.000       
J-331           	3961531.830       	3699412.000       
J-332           	3969210.780       	3708336.000       
J-333           	3971537.270       	3706907.000       
J-334           	3959133.830       	3696110.000       
J-335           	3962388.820       	3702061.000       
J-336           	3962428.290       	3701817.000       
J-337           	3962143.010       	3693721.000       
J-338           	3962437.180       	3693498.000       
J-339           	3959342.920       	3690608.000       
J-34            	3962454.010       	3699480.000       
J-340           	3959843.160       	3690671.000       
J-341           	3961934.200       	3693684.000       
J-342           	3965171.970       	3687646.000       
J-343           	3971022.620       	3704501.000       
J-344           	3971203.370       	3704120.000       
J-345           	3962116.430       	3701566.000       
J-346           	3962150.170       	3701296.000       
J-347           	3962364.840       	3701611.000       
J-348           	3962223.880       	3702098.000       
J-349           	3961506.300       	3698775.000       
J-35            	3964803.010       	3687370.000       
J-350           	3965518.180       	3699899.000       
J-351           	3968212.180       	3699375.000       
J-352           	3965592.090       	3700433.000       
J-353           	3960618.440       	3696069.000       
J-354           	3959857.550       	3695586.000       
J-355           	3963054.220       	3700647.000       
J-356           	3960202.360       	3690900.000       
J-357           	3960083.860       	3691278.000       
J-358           	3967869.000       	3704172.000       
J-359           	3959183.210       	3695331.000       
J-36            	3964586.160       	3686754.000       
J-360           	3959391.710       	3695422.000       
J-361           	3960703.760       	3699666.000       
J-362           	3967410.620       	3705252.000       
J-363           	3967224.300       	3701181.000       
J-364           	3965092.220       	3700901.000       
J-365           	3962083.690       	3698611.000       
J-366           	3962301.790       	3698422.000       
J-367           	3964287.260       	3699651.000       
J-368           	3965245.200       	3701261.000       
J-369           	3961814.820       	3694230.000       
J-37            	3960851.620       	3695687.000       
J-370           	3959033.580       	3690702.000       
J-371           	3958675.610       	3695587.000       
J-372           	3963516.650       	3697681.000       
J-373           	3967975.170       	3699325.000       
J-374           	3956891.520       	3691501.000       
J-375           	3961693.680       	3699658.000       
J-376           	3961745.620       	3700376.000       
J-377           	3965686.040       	3700983.000       
J-378           	3966779.910       	3699107.000       
J-379           	3964199.870       	3698210.000       
J-38            	3960329.420       	3695393.000       
J-380           	3962575.020       	3697603.000       
J-381           	3962815.310       	3697796.000       
J-382           	3965110.600       	3701344.000       
J-383           	3961448.760       	3694255.000       
J-384           	3959612.610       	3696438.000       
J-385           	3962030.780       	3700485.000       
J-386           	3971005.710       	3701537.000       
J-387           	3962265.200       	3700931.000       
J-388           	3960223.250       	3693465.000       
J-389           	3960073.970       	3692821.000       
J-39            	3962749.460       	3695430.000       
J-390           	3961992.770       	3699501.000       
J-391           	3955784.590       	3690244.000       
J-392           	3955853.770       	3689730.000       
J-393           	3967129.630       	3702810.000       
J-394           	3970330.750       	3701897.000       
J-395           	3970307.670       	3701435.000       
J-396           	3961256.670       	3707323.000       
J-397           	3966643.760       	3705244.000       
J-398           	3960745.800       	3700098.000       
J-399           	3963328.390       	3693437.000       
J-4             	3966635.060       	3706099.000       
J-40            	3962586.040       	3695283.000       
J-400           	3962199.720       	3701002.000       
J-401           	3965092.220       	3700901.000       
J-402           	3963228.410       	3699875.000       
J-403           	3962529.620       	3698424.000       
J-404           	3962632.960       	3698217.000       
J-405           	3962820.030       	3697800.000       
J-406           	3967624.760       	3700220.000       
J-407           	3967631.750       	3700188.000       
J-408           	3956838.960       	3688770.000       
J-409           	3965603.280       	3700930.000       
J-41            	3960561.030       	3693544.000       
J-410           	3960349.660       	3691355.000       
J-411           	3965938.620       	3702053.000       
J-412           	3965977.900       	3702373.000       
J-413           	3965646.120       	3701809.000       
J-414           	3967372.610       	3702920.000       
J-415           	3959494.410       	3691327.000       
J-416           	3967541.180       	3701162.000       
J-417           	3967499.880       	3701168.000       
J-418           	3960991.470       	3698733.000       
J-419           	3961439.250       	3698068.000       
J-42            	3961749.070       	3693516.000       
J-420           	3958650.380       	3697922.000       
J-421           	3961466.450       	3698028.000       
J-422           	3965581.900       	3686991.000       
J-423           	3962604.660       	3698248.000       
J-424           	3963205.340       	3698095.000       
J-425           	3961218.640       	3694085.000       
J-426           	3963558.320       	3694694.000       
J-427           	3965842.690       	3686565.000       
J-428           	3972778.340       	3704743.000       
J-429           	3962622.140       	3698211.000       
J-43            	3962696.600       	3696976.000       
J-430           	3960488.360       	3699722.000       
J-431           	3967736.660       	3699684.000       
J-432           	3968079.910       	3699629.000       
J-433           	3967333.130       	3704614.000       
J-434           	3965963.160       	3704081.000       
J-435           	3958228.620       	3693292.000       
J-436           	3958294.120       	3693378.000       
J-437           	3966723.140       	3705948.000       
J-438           	3959554.590       	3692110.000       
J-439           	3968564.780       	3703410.000       
J-44            	3962487.710       	3707725.000       
J-440           	3960411.300       	3700283.000       
J-441           	3968938.300       	3703611.000       
J-442           	3968921.460       	3703541.000       
J-443           	3963441.010       	3693121.000       
J-444           	3964504.550       	3693415.000       
J-445           	3968696.090       	3704892.000       
J-446           	3959606.940       	3693451.000       
J-447           	3971049.670       	3705239.000       
J-448           	3971448.860       	3705741.000       
J-449           	3966365.850       	3707116.000       
J-45            	3965900.550       	3707665.000       
J-450           	3969098.710       	3704616.000       
J-451           	3968777.060       	3704541.000       
J-452           	3968722.490       	3704778.000       
J-453           	3963901.660       	3697041.000       
J-454           	3967558.200       	3707287.000       
J-455           	3968497.510       	3708323.000       
J-456           	3960705.260       	3697187.000       
J-457           	3960868.450       	3697281.000       
J-458           	3963520.310       	3695587.000       
J-459           	3963443.020       	3695473.000       
J-46            	3972854.860       	3705197.000       
J-460           	3963988.930       	3697854.000       
J-461           	3965433.420       	3686351.000       
J-462           	3956922.600       	3689244.000       
J-463           	3967298.080       	3701292.000       
J-464           	3958728.960       	3697554.000       
J-465           	3965148.080       	3699615.000       
J-466           	3964824.270       	3700035.000       
J-467           	3965543.650       	3704085.000       
J-468           	3965936.230       	3704079.000       
J-469           	3966768.870       	3699826.000       
J-47            	3972755.570       	3704727.000       
J-470           	3967036.500       	3699957.000       
J-471           	3971615.590       	3704595.000       
J-472           	3963909.920       	3692341.000       
J-473           	3964371.660       	3696678.000       
J-474           	3966179.000       	3700420.000       
J-475           	3960364.730       	3698001.000       
J-476           	3960823.550       	3696916.000       
J-477           	3963232.180       	3693925.000       
J-478           	3964145.250       	3694080.000       
J-479           	3962055.870       	3702123.000       
J-48            	3960851.570       	3695604.000       
J-480           	3957151.520       	3692750.000       
J-481           	3957497.010       	3692717.000       
J-482           	3968060.740       	3703372.000       
J-483           	3968552.850       	3702165.000       
J-484           	3966008.500       	3703704.000       
J-485           	3963246.410       	3693836.000       
J-486           	3969104.030       	3704643.000       
J-487           	3959325.460       	3695246.000       
J-488           	3959293.000       	3695207.000       
J-489           	3968751.190       	3704561.000       
J-49            	3960863.890       	3695208.000       
J-490           	3964968.270       	3686041.000       
J-491           	3966675.900       	3687280.000       
J-492           	3968701.410       	3704795.000       
J-493           	3958373.840       	3694232.000       
J-494           	3966891.360       	3699603.000       
J-495           	3966272.600       	3700491.000       
J-496           	3967312.730       	3701314.000       
J-497           	3967322.480       	3701308.000       
J-498           	3966540.550       	3699313.000       
J-499           	3966488.250       	3699325.000       
J-5             	3931183.720       	3715721.000       
J-50            	3960578.000       	3691025.000       
J-500           	3972737.510       	3704729.000       
J-501           	3967498.420       	3700905.000       
J-502           	3961073.320       	3696487.000       
J-503           	3966055.690       	3700569.000       
J-504           	3968027.590       	3711513.000       
J-505           	3962364.710       	3700453.000       
J-506           	3965280.910       	3698481.000       
J-507           	3962209.780       	3699635.000       
J-508           	3966492.470       	3699113.000       
J-509           	3965739.390       	3702503.000       
J-51            	3960515.430       	3685430.000       
J-510           	3959549.060       	3697501.000       
J-511           	3965957.590       	3704090.000       
J-512           	3971695.620       	3705506.000       
J-513           	3971868.210       	3705341.000       
J-514           	3967982.390       	3702312.000       
J-515           	3960155.720       	3699850.000       
J-516           	3955553.500       	3689109.000       
J-517           	3959687.980       	3690930.000       
J-518           	3961090.240       	3697792.000       
J-519           	3961478.470       	3698783.000       
J-52            	3966771.870       	3702221.000       
J-520           	3966253.410       	3707642.000       
J-521           	3972248.690       	3706771.000       
J-522           	3972558.320       	3707352.000       
J-523           	3972611.630       	3706549.000       
J-524           	3960533.480       	3704720.000       
J-525           	3960432.520       	3704210.000       
J-526           	3960469.450       	3703554.000       
J-527           	3971651.810       	3705943.000       
J-528           	3993840.840       	3687478.000       
J-529           	3994522.090       	3681725.000       
J-53            	3967209.010       	3702095.000       
J-530           	3968017.810       	3711136.000       
J-531           	3966682.960       	3706011.000       
J-532           	3968339.710       	3704801.000       
J-533           	3968258.530       	3705151.000       
J-534           	3960491.470       	3693725.000       
J-535           	3993466.710       	3727485.000       
J-536           	3958475.730       	3694074.000       
J-537           	3957753.360       	3693489.000       
J-538           	3962830.260       	3694978.000       
J-539           	3962213.140       	3694949.000       
J-54            	3966889.030       	3701602.000       
J-540           	3972080.330       	3706611.000       
J-541           	3971939.730       	3706747.000       
J-542           	3960199.590       	3704321.000       
J-543           	3959525.200       	3704731.000       
J-544           	3972215.100       	3706725.000       
J-545           	3968161.580       	3705589.000       
J-546           	3971969.740       	3706418.000       
J-547           	3959928.970       	3695078.000       
J-548           	3967240.670       	3705138.000       
J-549           	3967343.700       	3704977.000       
J-55            	3960794.280       	3694239.000       
J-550           	3964168.850       	3705397.000       
J-551           	3960501.700       	3698444.000       
J-552           	3964461.810       	3699429.000       
J-553           	3964897.500       	3687217.000       
J-554           	3963490.070       	3697933.000       
J-555           	3955494.770       	3689523.000       
J-556           	3968003.600       	3710917.000       
J-557           	3967450.500       	3710345.000       
J-558           	3958771.030       	3694581.000       
J-559           	3957717.650       	3693725.000       
J-56            	3960533.790       	3694260.000       
J-560           	3967076.360       	3712493.000       
J-561           	3969020.710       	3704964.000       
J-562           	3968950.700       	3705251.000       
J-563           	3968916.540       	3702059.000       
J-564           	3969518.660       	3701653.000       
J-565           	3959137.210       	3696224.000       
J-566           	3956819.440       	3691122.000       
J-567           	3957257.130       	3691067.000       
J-568           	3964405.540       	3692777.000       
J-569           	3963958.860       	3693090.000       
J-57            	3972450.540       	3704905.000       
J-570           	3965681.720       	3703199.000       
J-571           	3966005.810       	3703079.000       
J-572           	3966242.660       	3688377.000       
J-573           	3971830.190       	3703233.000       
J-574           	3965585.140       	3704664.000       
J-575           	3964909.250       	3704916.000       
J-576           	4002335.640       	3683678.000       
J-577           	3959660.900       	3695663.000       
J-578           	3968173.340       	3712030.000       
J-579           	3969296.570       	3706804.000       
J-58            	3972809.260       	3704836.000       
J-580           	3969756.660       	3701493.000       
J-581           	3964632.940       	3699216.000       
J-582           	3959919.450       	3696197.000       
J-583           	3965573.550       	3687928.000       
J-584           	3965749.960       	3687620.000       
J-585           	3960440.920       	3697822.000       
J-586           	3968153.300       	3700928.000       
J-587           	3963038.290       	3700727.000       
J-588           	3957118.110       	3692663.000       
J-589           	3965664.330       	3703202.000       
J-59            	3966574.570       	3701927.000       
J-590           	3965013.430       	3703155.000       
J-591           	3958656.940       	3695594.000       
J-592           	3959065.970       	3695220.000       
J-593           	3965804.700       	3704666.000       
J-594           	3957898.140       	3693080.000       
J-595           	3958162.620       	3693052.000       
J-596           	3968940.100       	3708403.000       
J-597           	3962970.460       	3697156.000       
J-598           	3966775.400       	3686967.000       
J-599           	3968883.710       	3702013.000       
J-6             	3927503.620       	3707516.000       
J-60            	3966347.420       	3701584.000       
J-600           	3968540.850       	3701502.000       
J-601           	3958640.980       	3695255.000       
J-602           	3966009.540       	3704446.000       
J-603           	3962875.640       	3695441.000       
J-604           	3963100.440       	3695454.000       
J-605           	3967651.590       	3701809.000       
J-606           	3967984.910       	3701557.000       
J-607           	3965082.250       	3704758.000       
J-608           	3965240.300       	3686633.000       
J-609           	3968154.110       	3699646.000       
J-61            	3965986.190       	3702372.000       
J-610           	3963676.100       	3698462.000       
J-611           	3967244.970       	3699509.000       
J-612           	3971154.110       	3700587.000       
J-613           	3965908.290       	3687196.000       
J-614           	3966331.530       	3687058.000       
J-615           	3963546.340       	3697591.000       
J-616           	3967627.780       	3700203.000       
J-617           	3966235.630       	3704085.000       
J-618           	3968485.470       	3703084.000       
J-619           	3957354.620       	3690805.000       
J-619a          	3967974.440       	3699309.000       
J-62            	3965981.630       	3702334.000       
J-620           	3959039.730       	3695253.000       
J-621           	3966473.530       	3687849.000       
J-622           	3965060.420       	3704087.000       
J-623           	3969086.470       	3708953.000       
J-624           	3963390.630       	3695837.000       
J-625           	3968263.460       	3703234.000       
J-626           	3969068.580       	3709036.000       
J-627           	3964367.390       	3696022.000       
J-628           	3963794.730       	3697590.000       
J-629           	3966845.420       	3704913.000       
J-63            	3960442.420       	3698526.000       
J-630           	3966731.490       	3705100.000       
J-631           	3966089.170       	3703071.000       
J-632           	3967822.050       	3712452.000       
J-633           	3964984.780       	3703322.000       
J-634           	3945383.050       	3705554.000       
J-635           	3967431.580       	3701958.000       
J-636           	3965946.420       	3702043.000       
J-637           	3966110.270       	3702010.000       
J-638           	3970960.740       	3705152.000       
J-639           	3966538.500       	3705400.000       
J-64            	3960380.590       	3698472.000       
J-640           	3959006.570       	3695578.000       
J-641           	3963558.320       	3694694.000       
J-642           	3967614.580       	3700197.000       
J-643           	3963200.190       	3695170.000       
J-644           	3963155.740       	3694713.000       
J-645           	3962871.940       	3694638.000       
J-646           	3963116.160       	3695011.000       
J-647           	3960555.690       	3693500.000       
J-648           	3960662.930       	3692723.000       
J-649           	3960579.770       	3692686.000       
J-65            	3964664.870       	3705383.000       
J-650           	3960669.180       	3692667.000       
J-651           	3958813.630       	3694323.000       
J-652           	3938746.220       	3705884.000       
J-653           	3961276.650       	3699848.000       
J-654           	3960880.370       	3699573.000       
J-655           	3965662.280       	3703192.000       
J-656           	3964854.820       	3705413.000       
J-657           	3959630.910       	3693579.000       
J-658           	3938396.220       	3705821.000       
J-659           	3954108.130       	3696900.000       
J-66            	3964252.990       	3705363.000       
J-660           	3960218.940       	3692536.000       
J-661           	3957669.800       	3693352.000       
J-662           	3958242.790       	3692530.000       
J-663           	3960650.820       	3692273.000       
J-664           	3937089.940       	3705906.000       
J-665           	3963728.690       	3692628.000       
J-666           	3956700.700       	3692692.000       
J-667           	3964241.950       	3705330.000       
J-668           	3968925.310       	3708923.000       
J-669           	3964268.210       	3698920.000       
J-67            	3966567.620       	3702882.000       
J-670           	3965629.390       	3702915.000       
J-671           	3965443.970       	3702919.000       
J-672           	3959818.090       	3691996.000       
J-673           	3964383.030       	3697591.000       
J-674           	3964139.420       	3697924.000       
J-675           	3970621.680       	3704820.000       
J-676           	3969003.960       	3704961.000       
J-677           	3967002.450       	3705353.000       
J-678           	3960546.570       	3704909.000       
J-679           	3962927.670       	3697498.000       
J-68            	3967725.050       	3705245.000       
J-680           	3970337.500       	3701943.000       
J-681           	3966290.580       	3704473.000       
J-682           	3960303.770       	3698572.000       
J-683           	3977975.510       	3679427.000       
J-684           	3965067.580       	3704150.000       
J-685           	3978039.110       	3679368.000       
J-686           	3944916.020       	3714827.000       
J-687           	3964012.470       	3692756.000       
J-688           	3968059.860       	3702429.000       
J-689           	3968308.000       	3702813.000       
J-69            	3968102.580       	3704681.000       
J-690           	3972092.580       	3705534.000       
J-691           	3968621.020       	3702726.000       
J-692           	3937104.480       	3702287.000       
J-693           	3972415.920       	3703982.000       
J-694           	3960218.940       	3692536.000       
J-695           	3932961.840       	3706137.000       
J-696           	3968583.530       	3705335.000       
J-697           	3958016.530       	3698004.000       
J-698           	3962055.900       	3704442.000       
J-699           	3962162.790       	3705303.000       
J-7             	3966900.220       	3706953.000       
J-70            	3965962.360       	3701670.000       
J-700           	3961841.620       	3694549.000       
J-701           	3972319.520       	3704028.000       
J-702           	3972375.860       	3704102.000       
J-703           	3962883.870       	3694501.000       
J-704           	3968082.870       	3700632.000       
J-705           	3968133.030       	3700424.000       
J-706           	3970544.380       	3700938.000       
J-707           	3968323.830       	3700719.000       
J-708           	3970146.020       	3701211.000       
J-709           	3970150.270       	3701217.000       
J-71            	3960786.940       	3694079.000       
J-710           	3966363.100       	3707324.000       
J-711           	3961251.750       	3704823.000       
J-712           	3962048.380       	3700489.000       
J-713           	3962806.650       	3697815.000       
J-714           	3960294.390       	3698204.000       
J-715           	3955619.350       	3688014.000       
J-716           	3959547.940       	3693079.000       
J-717           	3966047.610       	3703391.000       
J-718           	3961937.720       	3696951.000       
J-719           	3953182.960       	3690739.000       
J-72            	3960674.000       	3693796.000       
J-720           	3962236.360       	3697138.000       
J-721           	3963175.590       	3698094.000       
J-722           	3963164.440       	3698062.000       
J-723           	3963152.140       	3698078.000       
J-724           	3967535.330       	3707558.000       
J-725           	3963655.580       	3696249.000       
J-726           	3963327.400       	3698201.000       
J-727           	3982579.380       	3702031.000       
J-728           	3968726.690       	3704798.000       
J-729           	3972558.760       	3707152.000       
J-73            	3967841.640       	3699294.000       
J-730           	3972742.500       	3706996.000       
J-731           	3971499.880       	3700284.000       
J-732           	3971498.730       	3700283.000       
J-733           	3967343.210       	3708096.000       
J-734           	3970180.230       	3704374.000       
J-735           	3971504.196       	3700285.644       
J-736           	3970488.780       	3704683.000       
J-737           	3966035.000       	3688243.000       
J-738           	3968821.130       	3708282.000       
J-739           	3963337.020       	3698191.000       
J-74            	3967871.860       	3699301.000       
J-740           	3955723.470       	3689537.000       
J-741           	3955622.330       	3688597.000       
J-742           	3955886.200       	3688718.000       
J-743           	3972224.680       	3706683.000       
J-744           	3963217.460       	3694083.000       
J-745           	3972238.090       	3706696.000       
J-746           	3972174.310       	3706700.000       
J-747           	3988500.590       	3696310.000       
J-748           	3969175.220       	3694261.000       
J-749           	3972199.680       	3706713.000       
J-75            	3956734.440       	3690952.000       
J-750           	3974021.400       	3686427.000       
J-751           	3987340.170       	3686204.000       
J-752           	3942091.010       	3710777.000       
J-753           	3936889.310       	3709307.000       
J-754           	3963522.020       	3697966.000       
J-76            	3959463.940       	3692591.000       
J-760           	3960868.240       	3693520.000       
J-761           	3967975.120       	3699305.000       
J-77            	3965399.550       	3704090.000       
J-78            	3965398.150       	3704080.000       
J-79            	3962206.020       	3701665.000       
J-8             	3966397.580       	3707123.000       
J-80            	3962549.760       	3701755.000       
J-81            	3963567.230       	3697721.000       
J-82            	3963580.610       	3697784.000       
J-83            	3962679.460       	3700558.000       
J-84            	3962912.110       	3699803.000       
J-85            	3967046.060       	3712063.000       
J-86            	3967012.890       	3711583.000       
J-87            	3966990.160       	3702606.000       
J-88            	3967368.550       	3702353.000       
J-89            	3959410.430       	3698306.000       
J-9             	3972840.640       	3704536.000       
J-90            	3959485.980       	3697867.000       
J-91            	3967900.290       	3699199.000       
J-92            	3960358.430       	3700304.000       
J-93            	3960016.630       	3700436.000       
J-94            	3969052.070       	3702248.000       
J-95            	3969247.410       	3702540.000       
J-96            	3962475.300       	3697495.000       
J-97            	3962588.430       	3697587.000       
J-98            	3965122.700       	3704455.000       
J-99            	3965075.790       	3704096.000       
I-Pump-1        	3971501.476       	3700290.908       
I-Pump-2        	3971502.244       	3700283.752       
I-AV-2          	3967974.420       	3699307.000       
O-Pump-1        	3971500.310       	3700285.000       
O-Pump-2        	3971501.535       	3700281.209       

[VERTICES]
;Link            	X-Coord           	Y-Coord
P-1             	3958331.900       	3704539.760       
P-1             	3958369.500       	3704291.960       
P-1             	3958434.310       	3704172.540       
P-1             	3958514.270       	3703970.200       
P-1             	3958509.260       	3703820.310       
P-1             	3958404.350       	3703303.210       
P-1             	3958359.390       	3703055.900       
P-1             	3958318.000       	3702903.010       
P-10            	3964961.200       	3690510.370       
P-10            	3965067.910       	3690339.120       
P-10            	3965223.580       	3690094.370       
P-10            	3965373.780       	3689839.560       
P-10            	3965440.450       	3689718.140       
P-10            	3965875.800       	3688983.490       
P-100           	3962629.020       	3704234.870       
P-100           	3963447.040       	3703818.680       
P-100           	3964422.920       	3703215.930       
P-101           	3966280.650       	3707642.580       
P-101           	3966292.070       	3707642.760       
P-101           	3966287.690       	3707666.680       
P-103           	3966944.810       	3710383.920       
P-104           	3964337.730       	3697216.770       
P-104           	3964362.410       	3697216.800       
P-105           	3967121.440       	3704482.150       
P-107           	3962024.850       	3693977.560       
P-107           	3962395.480       	3694061.120       
P-107           	3962651.280       	3694085.600       
P-108           	3965478.900       	3702163.630       
P-108           	3965478.750       	3702160.170       
P-108           	3965476.980       	3702119.410       
P-108           	3965461.110       	3701951.210       
P-109           	3966169.880       	3701316.860       
P-11            	3967338.090       	3701332.120       
P-111           	3972044.710       	3704585.960       
P-111           	3971684.400       	3704213.910       
P-112           	3971412.530       	3702680.900       
P-114           	3963307.500       	3696281.330       
P-114           	3963295.500       	3696321.930       
P-114           	3963453.880       	3696503.360       
P-114           	3963574.300       	3696534.120       
P-115           	3964508.000       	3705178.250       
P-115           	3964504.410       	3705145.140       
P-116           	3962838.560       	3697815.060       
P-116           	3962978.880       	3697920.370       
P-116           	3963149.190       	3698051.190       
P-117           	3963327.350       	3696181.560       
P-118           	3966133.860       	3708280.600       
P-118           	3966460.020       	3708369.770       
P-12            	3960711.520       	3698887.180       
P-124           	3965283.810       	3702781.010       
P-124           	3965516.460       	3702636.830       
P-124           	3965575.630       	3702599.250       
P-124           	3965734.800       	3702496.880       
P-124           	3965780.200       	3702467.260       
P-124           	3965935.340       	3702365.190       
P-124           	3965963.860       	3702346.420       
P-124           	3965973.530       	3702340.060       
P-125           	3972087.760       	3704575.550       
P-125           	3972308.320       	3704411.510       
P-125           	3972565.920       	3704218.430       
P-125           	3972578.560       	3704219.230       
P-126           	3971497.000       	3701290.150       
P-126           	3971608.890       	3701205.560       
P-126           	3971618.270       	3701198.470       
P-126           	3971718.200       	3700977.030       
P-126           	3971714.940       	3700933.320       
P-128           	3963542.800       	3697691.170       
P-129           	3958352.990       	3696739.240       
P-129           	3958366.680       	3696607.820       
P-129           	3958369.700       	3696527.770       
P-129           	3958724.410       	3696498.380       
P-13            	3967862.390       	3700496.790       
P-13            	3967934.090       	3700601.460       
P-13            	3968010.400       	3700712.850       
P-130           	3966559.350       	3701113.980       
P-130           	3966570.090       	3701133.510       
P-130           	3966732.460       	3701374.200       
P-132           	3963989.800       	3700050.070       
P-132           	3964186.970       	3700092.570       
P-132           	3964297.360       	3700136.860       
P-132           	3964436.680       	3700196.680       
P-132           	3964463.390       	3700205.200       
P-132           	3964597.740       	3700292.730       
P-133           	3970828.280       	3700744.430       
P-133           	3970843.270       	3700765.240       
P-133           	3971128.100       	3701160.490       
P-134           	3969616.940       	3706266.950       
P-135           	3966913.280       	3705612.140       
P-135           	3966565.690       	3705398.190       
P-138           	3958766.230       	3691035.820       
P-138           	3958821.920       	3691320.110       
P-139           	3962464.940       	3699694.660       
P-139           	3962599.600       	3699725.330       
P-14            	3965235.500       	3700673.440       
P-14            	3965405.000       	3700427.880       
P-142           	3961102.010       	3701378.870       
P-142           	3961117.620       	3701304.500       
P-142           	3961194.570       	3701278.070       
P-142           	3961201.720       	3701115.120       
P-142           	3961215.120       	3700809.440       
P-142           	3961141.200       	3700597.400       
P-142           	3961110.320       	3699968.110       
P-146           	3968172.950       	3704243.070       
P-146           	3968259.370       	3704293.530       
P-147           	3959637.460       	3697004.360       
P-147           	3959636.810       	3696882.470       
P-148           	3964392.170       	3705068.300       
P-148           	3964467.240       	3705057.780       
P-148           	3964531.280       	3705042.240       
P-148           	3964608.290       	3705023.550       
P-148           	3964712.760       	3704994.490       
P-148           	3964730.020       	3704989.690       
P-149           	3960078.750       	3691748.870       
P-15            	3966451.870       	3702322.680       
P-152           	3966895.090       	3703593.190       
P-153           	3963346.380       	3696048.040       
P-155           	3966273.090       	3704067.880       
P-155           	3966463.700       	3704069.470       
P-155           	3966550.370       	3704165.940       
P-155           	3966560.640       	3704172.390       
P-155           	3966679.620       	3704247.060       
P-156           	3963087.730       	3696621.910       
P-156           	3963125.690       	3696413.770       
P-156           	3963104.840       	3696397.390       
P-156           	3963073.900       	3696373.070       
P-156           	3963139.890       	3695944.850       
P-156           	3963193.640       	3695612.370       
P-156           	3963270.850       	3695612.190       
P-156           	3963309.040       	3695612.120       
P-158           	3967177.930       	3704437.690       
P-159           	3964077.600       	3696917.700       
P-159           	3964346.480       	3696961.270       
P-16            	3960618.160       	3698160.850       
P-16            	3960648.980       	3698158.020       
P-160           	3966128.650       	3708193.150       
P-160           	3966146.650       	3708109.480       
P-160           	3966141.710       	3708083.990       
P-160           	3966131.890       	3708033.280       
P-160           	3966164.350       	3707821.490       
P-160           	3966170.600       	3707780.730       
P-160           	3966207.420       	3707728.030       
P-160           	3966236.370       	3707702.930       
P-160           	3966252.700       	3707688.770       
P-160           	3966258.650       	3707668.930       
P-161           	3971400.660       	3700338.210       
P-161           	3971279.010       	3700145.880       
P-162           	3967079.770       	3701435.800       
P-162           	3967069.800       	3701420.620       
P-162           	3966945.240       	3701233.070       
P-162           	3966918.070       	3701189.940       
P-162           	3966776.040       	3700980.630       
P-163           	3963314.550       	3695535.540       
P-163           	3963316.480       	3695429.200       
P-163           	3963300.180       	3695292.560       
P-163           	3963280.240       	3695095.770       
P-163           	3963279.360       	3695085.590       
P-163           	3963262.710       	3694892.100       
P-164           	3964382.520       	3697446.620       
P-166           	3968326.000       	3703334.230       
P-166           	3968422.200       	3703479.570       
P-167           	3960087.330       	3699444.210       
P-168           	3964845.990       	3705330.670       
P-169           	3960407.150       	3699326.140       
P-169           	3960542.170       	3699282.390       
P-169           	3960566.090       	3699274.640       
P-169           	3960616.990       	3699388.040       
P-169           	3960648.910       	3699382.330       
P-17            	3969019.420       	3705020.020       
P-17            	3969001.540       	3705091.710       
P-17            	3968953.870       	3705295.040       
P-17            	3968951.360       	3705305.750       
P-17            	3968646.400       	3705233.160       
P-17            	3968628.580       	3705228.920       
P-170           	3970723.050       	3700818.020       
P-170           	3970828.280       	3700744.430       
P-170           	3970857.550       	3700723.950       
P-170           	3970972.350       	3700646.840       
P-170           	3971046.220       	3700626.390       
P-171           	3966913.300       	3703602.130       
P-171           	3966941.750       	3703616.100       
P-171           	3966941.380       	3703677.360       
P-171           	3967169.970       	3703827.470       
P-171           	3967310.770       	3703921.890       
P-171           	3967600.760       	3704090.520       
P-171           	3967753.850       	3704172.630       
P-171           	3967800.160       	3704188.070       
P-171           	3967826.470       	3704194.370       
P-172           	3964193.520       	3696060.270       
P-172           	3963856.070       	3695996.450       
P-172           	3963751.120       	3695977.080       
P-173           	3966930.440       	3710145.250       
P-173           	3966848.640       	3710025.630       
P-173           	3966826.650       	3709921.530       
P-173           	3966630.800       	3709648.980       
P-173           	3966518.400       	3709508.840       
P-173           	3966424.700       	3709392.670       
P-173           	3966382.200       	3709432.030       
P-173           	3966312.570       	3709347.190       
P-173           	3966196.130       	3709345.310       
P-173           	3966117.690       	3709242.100       
P-174           	3963350.510       	3695540.690       
P-174           	3963314.550       	3695535.540       
P-174           	3963302.890       	3695533.890       
P-175           	3963158.290       	3696391.320       
P-175           	3963202.110       	3696444.310       
P-175           	3963359.090       	3696624.120       
P-175           	3963455.200       	3696712.250       
P-175           	3963620.610       	3696877.880       
P-175           	3963851.920       	3697121.610       
P-175           	3963965.490       	3697267.980       
P-175           	3964069.860       	3697392.400       
P-176           	3967922.400       	3702702.730       
P-176           	3967930.260       	3702714.870       
P-176           	3968079.530       	3702945.470       
P-178           	3967526.430       	3704688.230       
P-178           	3967610.090       	3704554.870       
P-178           	3967750.910       	3704342.180       
P-178           	3967837.410       	3704217.710       
P-179           	3968264.230       	3704330.400       
P-179           	3968261.940       	3704387.610       
P-179           	3968237.870       	3704444.480       
P-18            	3962875.640       	3698509.540       
P-18            	3962800.180       	3698624.120       
P-180           	3965508.020       	3703181.230       
P-181           	3965332.710       	3703313.880       
P-181           	3965292.610       	3703314.800       
P-181           	3965293.680       	3703352.420       
P-181           	3965278.370       	3703352.580       
P-181           	3965002.060       	3703355.480       
P-181           	3964987.520       	3703355.630       
P-182           	3967385.080       	3702376.920       
P-184           	3970144.740       	3704125.060       
P-184           	3970272.290       	3704032.930       
P-184           	3970349.600       	3703989.480       
P-184           	3970445.180       	3703901.640       
P-184           	3970482.070       	3703855.790       
P-185           	3967556.370       	3702627.320       
P-186           	3964388.040       	3705202.360       
P-187           	3960139.880       	3696035.070       
P-188           	3971452.950       	3700351.220       
P-188           	3971428.650       	3700424.070       
P-188           	3971401.710       	3700456.670       
P-188           	3971353.800       	3700490.040       
P-188           	3971268.710       	3700542.090       
P-188           	3971190.440       	3700581.570       
P-189           	3960429.140       	3698813.310       
P-19            	3964792.010       	3687362.760       
P-19            	3964644.410       	3687252.470       
P-19            	3964393.180       	3687070.530       
P-19            	3964402.830       	3687054.710       
P-19            	3964458.780       	3686962.980       
P-190           	3972271.550       	3704982.980       
P-191           	3966512.340       	3706144.220       
P-192           	3959829.500       	3692639.800       
P-192           	3959929.130       	3692620.790       
P-192           	3959936.990       	3692619.290       
P-192           	3959928.480       	3692584.020       
P-193           	3963204.950       	3695960.190       
P-193           	3963250.740       	3695721.690       
P-193           	3963269.890       	3695630.050       
P-193           	3963270.850       	3695612.190       
P-194           	3968418.100       	3703510.290       
P-194           	3968401.520       	3703521.620       
P-194           	3968277.590       	3703604.450       
P-194           	3968233.810       	3703633.710       
P-194           	3968224.980       	3703639.610       
P-194           	3968143.220       	3703737.170       
P-195           	3968091.500       	3702963.930       
P-197           	3957536.550       	3693488.180       
P-197           	3957560.040       	3693439.880       
P-198           	3972498.840       	3706605.660       
P-198           	3972512.030       	3706622.750       
P-198           	3972515.140       	3706707.140       
P-198           	3972708.910       	3706954.010       
P-199           	3959579.660       	3697323.400       
P-2             	3966483.890       	3706617.390       
P-2             	3966549.350       	3706261.420       
P-2             	3966624.450       	3706115.150       
P-20            	3960648.000       	3695626.670       
P-20            	3960467.650       	3695489.420       
P-20            	3960369.410       	3695425.140       
P-200           	3963658.310       	3697394.720       
P-200           	3963530.360       	3697271.920       
P-200           	3963437.220       	3697171.060       
P-200           	3963360.310       	3697098.730       
P-200           	3963216.260       	3696938.220       
P-200           	3963172.260       	3696916.120       
P-200           	3963120.670       	3696904.340       
P-201           	3964235.030       	3697678.710       
P-201           	3964235.960       	3697680.450       
P-203           	3963608.190       	3695643.710       
P-203           	3963656.160       	3695671.160       
P-203           	3963807.160       	3695709.680       
P-204           	3969797.670       	3706291.970       
P-204           	3969991.580       	3706072.970       
P-204           	3970178.930       	3705866.570       
P-205           	3967921.400       	3703162.150       
P-206           	3959577.590       	3692180.280       
P-206           	3959482.930       	3692262.980       
P-207           	3964167.450       	3705114.240       
P-207           	3964175.780       	3705110.250       
P-207           	3964173.680       	3705104.730       
P-207           	3964171.830       	3705099.850       
P-207           	3964185.710       	3705096.090       
P-207           	3964207.790       	3705090.100       
P-207           	3964295.380       	3705081.870       
P-207           	3964341.390       	3705075.420       
P-208           	3968280.510       	3703302.990       
P-209           	3971509.870       	3703126.710       
P-209           	3971616.730       	3703185.590       
P-209           	3971566.020       	3703256.030       
P-21            	3962677.730       	3695413.480       
P-21            	3962593.320       	3695294.050       
P-210           	3961135.230       	3696332.250       
P-210           	3960966.540       	3696223.630       
P-210           	3960966.450       	3696172.000       
P-210           	3960859.830       	3696156.700       
P-212           	3968283.470       	3704319.810       
P-212           	3968278.220       	3704391.960       
P-212           	3968248.490       	3704461.010       
P-213           	3971143.230       	3701200.490       
P-213           	3971151.250       	3701211.630       
P-214           	3960602.230       	3705935.120       
P-214           	3960623.800       	3705936.000       
P-215           	3967715.340       	3702868.240       
P-215           	3967744.120       	3702907.780       
P-216           	3960767.860       	3697864.650       
P-216           	3960828.420       	3697689.740       
P-217           	3966619.910       	3699483.240       
P-219           	3965487.880       	3704697.700       
P-22            	3960588.830       	3693538.250       
P-22            	3960636.440       	3693526.990       
P-22            	3960650.890       	3693523.570       
P-22            	3960760.770       	3693504.640       
P-22            	3960851.310       	3693512.860       
P-220           	3960255.550       	3710870.880       
P-220           	3960427.380       	3710855.870       
P-220           	3960528.290       	3710913.140       
P-220           	3960907.400       	3711192.690       
P-220           	3960979.670       	3711258.160       
P-220           	3961016.490       	3711346.780       
P-220           	3961114.330       	3711585.950       
P-220           	3961216.610       	3711776.860       
P-220           	3961351.270       	3712061.520       
P-220           	3961383.640       	3712110.970       
P-220           	3961397.300       	3712163.810       
P-220           	3961525.160       	3712358.130       
P-220           	3961608.670       	3712482.560       
P-220           	3961738.220       	3712678.600       
P-220           	3961808.110       	3712821.780       
P-220           	3961947.880       	3713012.690       
P-220           	3962056.970       	3713130.310       
P-221           	3971459.550       	3700351.860       
P-221           	3971443.170       	3700412.160       
P-221           	3971422.820       	3700444.900       
P-221           	3971388.790       	3700471.880       
P-221           	3971297.030       	3700528.770       
P-221           	3971212.530       	3700577.530       
P-222           	3962029.830       	3699609.520       
P-222           	3961955.110       	3699573.240       
P-222           	3961926.830       	3699559.510       
P-222           	3961804.310       	3699500.020       
P-222           	3961800.320       	3699484.420       
P-222           	3961529.590       	3699464.550       
P-223           	3969214.720       	3708318.070       
P-223           	3969216.050       	3708311.660       
P-223           	3969373.820       	3708241.210       
P-223           	3969575.530       	3708155.310       
P-223           	3969810.050       	3708013.520       
P-223           	3970034.520       	3707784.880       
P-223           	3970264.060       	3707639.610       
P-223           	3970284.030       	3707626.970       
P-223           	3970687.760       	3707388.940       
P-223           	3970916.850       	3707279.760       
P-223           	3971261.780       	3707087.400       
P-224           	3958899.540       	3696062.700       
P-224           	3959006.880       	3696100.990       
P-225           	3962376.890       	3702031.600       
P-225           	3962362.330       	3701980.780       
P-226           	3962291.270       	3693742.490       
P-226           	3962350.830       	3693736.540       
P-226           	3962414.170       	3693694.050       
P-226           	3962433.120       	3693544.220       
P-227           	3959459.400       	3690575.870       
P-227           	3959595.320       	3690558.450       
P-227           	3959724.250       	3690596.770       
P-227           	3959786.630       	3690637.150       
P-228           	3962054.190       	3693708.630       
P-228           	3962124.920       	3693718.580       
P-230           	3971041.550       	3704471.780       
P-230           	3971056.990       	3704245.730       
P-230           	3971082.990       	3704212.530       
P-231           	3966713.670       	3704224.960       
P-231           	3966716.440       	3704222.040       
P-231           	3966753.040       	3704246.580       
P-231           	3966763.600       	3704253.660       
P-232           	3966143.840       	3707672.750       
P-232           	3966185.240       	3707644.860       
P-232           	3966230.980       	3707642.830       
P-233           	3962118.700       	3701322.650       
P-233           	3962118.860       	3701304.750       
P-234           	3962339.010       	3701700.470       
P-235           	3961532.660       	3699379.430       
P-235           	3961535.720       	3699257.200       
P-235           	3961542.670       	3698980.310       
P-235           	3961547.410       	3698791.440       
P-235           	3961533.820       	3698791.100       
P-235           	3961505.940       	3698790.390       
P-235           	3961506.000       	3698787.720       
P-237           	3970229.040       	3699414.860       
P-238           	3965471.140       	3700397.660       
P-239           	3960609.220       	3696083.830       
P-239           	3960572.120       	3696056.060       
P-239           	3960129.510       	3695724.700       
P-239           	3960116.880       	3695716.080       
P-239           	3959876.870       	3695552.180       
P-24            	3962944.740       	3707698.460       
P-24            	3963448.610       	3707658.480       
P-24            	3964469.190       	3707578.730       
P-24            	3964863.540       	3707572.260       
P-24            	3965338.280       	3707551.040       
P-24            	3965731.440       	3707618.250       
P-240           	3962702.190       	3700564.220       
P-240           	3962726.090       	3700570.640       
P-241           	3960189.040       	3690921.640       
P-241           	3960097.500       	3691064.940       
P-241           	3960058.880       	3691135.360       
P-241           	3960058.770       	3691138.200       
P-241           	3960056.600       	3691192.160       
P-242           	3967875.010       	3704163.620       
P-245           	3967624.150       	3705389.890       
P-245           	3967645.090       	3705359.940       
P-246           	3967233.730       	3701175.430       
P-246           	3967400.180       	3701070.160       
P-246           	3967420.950       	3701022.340       
P-246           	3967481.390       	3700995.900       
P-246           	3967484.050       	3700922.130       
P-246           	3967489.410       	3700773.780       
P-246           	3967496.960       	3700735.910       
P-246           	3967537.750       	3700531.570       
P-246           	3967564.760       	3700417.920       
P-246           	3967610.740       	3700215.350       
P-246           	3967613.440       	3700203.430       
P-247           	3965107.520       	3700876.180       
P-247           	3965156.650       	3700793.460       
P-248           	3962096.170       	3698592.100       
P-248           	3962160.380       	3698490.620       
P-248           	3962222.440       	3698460.690       
P-249           	3963983.770       	3700031.020       
P-249           	3964122.980       	3699861.720       
P-249           	3964274.620       	3699668.070       
P-25            	3972840.590       	3705113.730       
P-25            	3972824.860       	3705020.360       
P-25            	3972797.710       	3704859.090       
P-25            	3972795.450       	3704845.680       
P-25            	3972793.660       	3704840.380       
P-25            	3972762.060       	3704746.530       
P-250           	3965256.980       	3701277.400       
P-250           	3965290.180       	3701321.700       
P-250           	3965333.460       	3701410.270       
P-250           	3965377.550       	3701495.850       
P-250           	3965426.180       	3701533.770       
P-250           	3965507.180       	3701564.480       
P-252           	3958860.070       	3690757.060       
P-252           	3958983.230       	3690716.890       
P-253           	3961756.880       	3693514.150       
P-253           	3961905.210       	3693468.860       
P-253           	3962184.800       	3693365.720       
P-253           	3962298.790       	3693332.180       
P-253           	3962377.810       	3693304.790       
P-253           	3962516.830       	3693291.180       
P-253           	3962720.000       	3693325.420       
P-254           	3962678.970       	3694055.900       
P-254           	3962726.140       	3693681.930       
P-254           	3962759.800       	3693453.220       
P-254           	3962711.740       	3693447.250       
P-256           	3971435.110       	3702882.610       
P-258           	3959929.840       	3690725.700       
P-258           	3960166.800       	3690879.020       
P-26            	3960868.510       	3695294.390       
P-260           	3961702.780       	3699689.710       
P-260           	3961739.480       	3699811.900       
P-260           	3961782.000       	3699939.310       
P-260           	3961723.630       	3700156.420       
P-260           	3961727.120       	3700287.550       
P-261           	3963180.860       	3698087.610       
P-262           	3965662.010       	3700998.640       
P-262           	3965291.480       	3701227.710       
P-263           	3967717.040       	3699503.390       
P-264           	3963588.120       	3697737.550       
P-264           	3963602.060       	3697748.570       
P-264           	3963630.540       	3697771.080       
P-264           	3963797.430       	3697895.720       
P-264           	3963937.160       	3698002.420       
P-264           	3964110.460       	3698139.380       
P-265           	3962588.490       	3697614.700       
P-265           	3962730.440       	3697728.130       
P-265           	3962808.710       	3697791.060       
P-265           	3962810.430       	3697792.440       
P-266           	3965231.670       	3701270.050       
P-267           	3968161.760       	3704600.010       
P-268           	3961788.750       	3694224.560       
P-268           	3961591.480       	3694189.160       
P-268           	3961543.840       	3694198.090       
P-268           	3961464.510       	3694246.160       
P-269           	3959626.260       	3696667.120       
P-27            	3960559.180       	3690783.990       
P-27            	3960515.430       	3690199.600       
P-27            	3960602.930       	3690193.350       
P-27            	3960562.290       	3689793.350       
P-27            	3960534.180       	3689421.480       
P-27            	3960481.060       	3689074.610       
P-27            	3960447.040       	3688948.080       
P-27            	3960440.420       	3688640.230       
P-27            	3960465.420       	3688390.230       
P-27            	3960515.430       	3687905.860       
P-27            	3960559.180       	3687421.480       
P-27            	3960565.430       	3687133.980       
P-27            	3960571.680       	3686877.730       
P-27            	3960574.800       	3686715.230       
P-27            	3960668.550       	3686277.740       
P-27            	3960706.050       	3686115.230       
P-27            	3960715.420       	3686033.990       
P-27            	3960696.670       	3685943.350       
P-27            	3960524.490       	3685456.470       
P-270           	3962308.950       	3702079.820       
P-271           	3961846.030       	3694237.910       
P-271           	3962064.960       	3694287.430       
P-271           	3962291.270       	3694341.030       
P-271           	3962327.000       	3694376.760       
P-271           	3962338.920       	3694421.430       
P-271           	3962335.950       	3694486.940       
P-273           	3966167.070       	3701282.660       
P-274           	3960855.610       	3694971.820       
P-275           	3962186.260       	3699657.800       
P-275           	3962149.260       	3699855.910       
P-275           	3962072.500       	3700249.020       
P-276           	3971293.170       	3701430.620       
P-276           	3971097.110       	3701569.120       
P-276           	3971086.240       	3701576.790       
P-276           	3971009.730       	3701539.550       
P-278           	3960236.380       	3693399.590       
P-278           	3960239.150       	3693286.450       
P-278           	3960231.200       	3693240.780       
P-278           	3960197.420       	3693153.360       
P-278           	3960143.780       	3693030.170       
P-278           	3960076.940       	3692836.570       
P-279           	3961926.830       	3699559.510       
P-279           	3961979.530       	3699537.190       
P-28            	3966931.610       	3702193.450       
P-28            	3967077.470       	3702161.620       
P-28            	3967138.140       	3702135.880       
P-280           	3955803.770       	3690197.020       
P-280           	3955832.940       	3690122.000       
P-280           	3955857.940       	3690005.330       
P-280           	3955864.190       	3689882.380       
P-282           	3969284.230       	3702514.210       
P-282           	3969349.030       	3702468.700       
P-282           	3969537.660       	3702377.970       
P-282           	3969619.100       	3702346.530       
P-282           	3969717.430       	3702308.570       
P-282           	3969767.000       	3702290.730       
P-282           	3969907.980       	3702247.530       
P-282           	3970076.190       	3702217.510       
P-282           	3970119.480       	3702206.320       
P-282           	3970250.120       	3702172.580       
P-282           	3970275.020       	3702151.150       
P-282           	3970301.370       	3702038.380       
P-282           	3970319.020       	3701953.580       
P-282           	3970325.660       	3701921.680       
P-283           	3970399.680       	3701566.060       
P-283           	3970329.970       	3701465.880       
P-284           	3961126.300       	3707675.330       
P-284           	3960578.490       	3707517.260       
P-284           	3960621.790       	3708175.500       
P-284           	3960723.020       	3709286.560       
P-284           	3960760.910       	3709841.740       
P-284           	3960737.240       	3710112.400       
P-284           	3960683.080       	3710291.720       
P-284           	3960584.990       	3710481.180       
P-284           	3960432.730       	3710640.190       
P-285           	3966557.610       	3705371.780       
P-286           	3960743.620       	3700075.870       
P-287           	3963062.500       	3696600.900       
P-287           	3963054.170       	3696599.570       
P-287           	3963057.710       	3696577.140       
P-287           	3963072.780       	3696515.060       
P-287           	3963087.020       	3696412.640       
P-287           	3963104.840       	3696397.390       
P-287           	3963118.210       	3696385.950       
P-288           	3963198.050       	3693408.950       
P-289           	3960590.970       	3698788.620       
P-289           	3960538.520       	3698805.730       
P-289           	3960530.500       	3698802.540       
P-29            	3966899.520       	3701625.140       
P-290           	3962023.530       	3700527.050       
P-290           	3962000.490       	3700643.850       
P-290           	3962014.640       	3700690.420       
P-290           	3962117.800       	3701030.410       
P-291           	3964951.450       	3700822.640       
P-291           	3964938.580       	3700825.440       
P-291           	3964841.020       	3700974.190       
P-291           	3964842.990       	3700992.370       
P-291           	3964981.300       	3701081.450       
P-291           	3965002.430       	3701081.800       
P-291           	3965094.650       	3700938.250       
P-291           	3965100.250       	3700918.690       
P-292           	3963391.900       	3699911.690       
P-292           	3963515.000       	3699940.650       
P-292           	3963874.570       	3700025.250       
P-292           	3963923.990       	3700035.890       
P-293           	3962536.410       	3698411.120       
P-293           	3962614.910       	3698253.560       
P-296           	3956981.830       	3690558.450       
P-296           	3957117.300       	3690289.840       
P-296           	3957135.150       	3690237.850       
P-296           	3957156.070       	3690115.890       
P-296           	3957149.100       	3690018.320       
P-296           	3957080.980       	3689784.130       
P-296           	3957023.650       	3689596.670       
P-296           	3956940.070       	3689323.120       
P-297           	3965670.020       	3700973.260       
P-298           	3960120.870       	3691274.950       
P-298           	3960131.570       	3691273.940       
P-298           	3960262.550       	3691322.080       
P-299           	3965947.420       	3702051.490       
P-299           	3966055.510       	3702030.190       
P-299           	3966154.820       	3702010.610       
P-299           	3966504.820       	3701941.650       
P-299           	3966538.140       	3701935.080       
P-3             	3931137.120       	3715691.590       
P-3             	3931099.810       	3715638.750       
P-3             	3930380.880       	3714206.610       
P-3             	3930226.710       	3713918.150       
P-3             	3929877.430       	3713515.690       
P-3             	3929185.090       	3712456.720       
P-3             	3929150.990       	3712391.270       
P-3             	3929069.150       	3712206.350       
P-3             	3928944.250       	3711833.540       
P-3             	3928735.640       	3711050.140       
P-3             	3928519.140       	3710223.440       
P-3             	3928331.350       	3709352.290       
P-3             	3928106.710       	3708761.310       
P-3             	3928096.530       	3708737.640       
P-3             	3927877.000       	3708329.590       
P-3             	3927627.040       	3707843.760       
P-3             	3927561.030       	3707710.650       
P-30            	3960685.800       	3694253.840       
P-30            	3960543.490       	3694261.590       
P-300           	3965975.740       	3702356.990       
P-300           	3965973.530       	3702340.060       
P-300           	3965943.170       	3702107.330       
P-301           	3965930.070       	3701951.890       
P-301           	3965917.280       	3701844.340       
P-301           	3965913.730       	3701814.550       
P-301           	3965911.620       	3701796.780       
P-301           	3965887.270       	3701797.970       
P-301           	3965686.630       	3701807.790       
P-301           	3965664.500       	3701808.870       
P-302           	3967614.480       	3702758.880       
P-302           	3967432.890       	3702880.760       
P-303           	3966035.280       	3709069.770       
P-303           	3965992.560       	3708991.810       
P-303           	3965972.180       	3708932.860       
P-303           	3965963.770       	3708875.410       
P-303           	3965992.630       	3708739.970       
P-303           	3966065.090       	3708499.930       
P-304           	3960716.730       	3698640.650       
P-304           	3960687.410       	3698296.490       
P-305           	3962059.920       	3698618.580       
P-305           	3961847.230       	3698672.720       
P-305           	3961777.980       	3698698.630       
P-305           	3961657.490       	3698731.410       
P-306           	3959396.390       	3690862.680       
P-306           	3959476.370       	3691242.220       
P-307           	3967528.450       	3701171.090       
P-307           	3967514.240       	3701169.950       
P-308           	3961012.460       	3698721.670       
P-308           	3961072.060       	3698696.300       
P-308           	3961202.290       	3698625.680       
P-308           	3961259.580       	3698568.410       
P-308           	3961300.490       	3698510.890       
P-308           	3961305.090       	3698489.120       
P-308           	3961314.270       	3698445.640       
P-308           	3961320.790       	3698380.300       
P-308           	3961334.920       	3698293.260       
P-308           	3961346.660       	3698240.720       
P-308           	3961390.050       	3698143.240       
P-308           	3961426.870       	3698087.140       
P-309           	3958633.440       	3697997.770       
P-31            	3972490.720       	3704865.500       
P-31            	3972701.540       	3704845.650       
P-31            	3972731.600       	3704856.590       
P-31            	3972793.660       	3704840.380       
P-310           	3961460.870       	3698035.280       
P-311           	3965446.080       	3687210.220       
P-311           	3965319.790       	3687413.550       
P-311           	3965185.780       	3687624.900       
P-312           	3963142.740       	3696341.660       
P-312           	3963164.610       	3696183.610       
P-313           	3962614.910       	3698253.560       
P-314           	3964623.050       	3700309.230       
P-314           	3964638.710       	3700319.120       
P-314           	3964809.080       	3700426.720       
P-314           	3964845.810       	3700451.490       
P-314           	3965034.300       	3700568.950       
P-315           	3963190.870       	3698083.220       
P-316           	3961833.230       	3693935.900       
P-316           	3961511.080       	3693864.580       
P-316           	3961436.640       	3693864.580       
P-316           	3961359.220       	3693921.160       
P-316           	3961246.120       	3694057.790       
P-317           	3959225.940       	3690642.060       
P-317           	3959291.330       	3690623.510       
P-319           	3967956.810       	3699321.380       
P-32            	3966556.900       	3701901.190       
P-320           	3967716.340       	3701043.630       
P-320           	3967694.060       	3701058.740       
P-322           	3965789.040       	3686658.140       
P-322           	3965685.350       	3686825.040       
P-323           	3972715.450       	3704553.440       
P-323           	3972700.150       	3704507.300       
P-323           	3972605.910       	3704245.540       
P-324           	3965045.100       	3702970.800       
P-324           	3965039.030       	3702958.580       
P-324           	3965098.660       	3702916.350       
P-324           	3965273.670       	3702802.490       
P-324           	3965377.740       	3702734.370       
P-324           	3965416.310       	3702711.750       
P-324           	3965487.880       	3702667.040       
P-324           	3965516.120       	3702649.400       
P-325           	3961756.230       	3693533.730       
P-325           	3961766.930       	3693559.460       
P-325           	3961810.300       	3693630.530       
P-325           	3961861.460       	3693662.110       
P-325           	3961916.660       	3693681.030       
P-327           	3971408.290       	3703962.800       
P-328           	3960474.430       	3699686.760       
P-328           	3960422.970       	3699552.070       
P-328           	3960362.780       	3699396.660       
P-328           	3960344.050       	3699348.010       
P-329           	3967769.030       	3699554.770       
P-329           	3968002.570       	3699611.210       
P-329           	3968042.020       	3699620.740       
P-329           	3968056.390       	3699624.210       
P-33            	3965984.030       	3702354.470       
P-330           	3967490.590       	3704709.090       
P-331           	3966944.920       	3705604.150       
P-331           	3967027.610       	3705471.580       
P-332           	3965971.660       	3704081.380       
P-332           	3966023.920       	3704082.010       
P-332           	3966123.890       	3704082.640       
P-332           	3966143.200       	3704069.720       
P-333           	3958263.590       	3693338.690       
P-335           	3966724.000       	3705946.770       
P-335           	3966876.530       	3705711.600       
P-335           	3966913.120       	3705655.180       
P-335           	3966920.590       	3705643.180       
P-336           	3959579.350       	3692141.050       
P-337           	3965235.910       	3700696.080       
P-337           	3965260.820       	3700711.780       
P-337           	3965263.810       	3700713.670       
P-338           	3968450.210       	3703488.340       
P-339           	3962366.520       	3698391.210       
P-339           	3962508.280       	3698395.300       
P-339           	3962530.880       	3698402.940       
P-34            	3960424.640       	3698511.150       
P-34            	3960394.880       	3698484.800       
P-340           	3960751.000       	3700113.960       
P-340           	3960753.750       	3700122.300       
P-340           	3960727.980       	3700130.420       
P-340           	3960592.740       	3700189.730       
P-340           	3960554.090       	3700206.680       
P-340           	3960532.080       	3700216.330       
P-340           	3960538.940       	3700232.130       
P-341           	3968918.110       	3703613.450       
P-341           	3968910.840       	3703544.330       
P-341           	3968910.460       	3703540.690       
P-342           	3963970.510       	3693267.940       
P-342           	3964441.380       	3693398.360       
P-343           	3968617.830       	3705200.280       
P-344           	3959695.750       	3693433.460       
P-344           	3959843.200       	3693409.890       
P-345           	3971371.510       	3705561.910       
P-345           	3971445.060       	3705641.370       
P-345           	3971394.250       	3705686.430       
P-346           	3966402.060       	3706954.670       
P-346           	3966448.820       	3706685.080       
P-346           	3966458.280       	3706666.820       
P-346           	3966483.890       	3706617.390       
P-346           	3966703.780       	3706192.750       
P-346           	3966654.510       	3706109.720       
P-346           	3966647.440       	3706105.930       
P-347           	3968921.120       	3704574.410       
P-348           	3968770.270       	3704566.180       
P-348           	3968724.880       	3704768.090       
P-349           	3963918.990       	3696912.150       
P-349           	3963914.250       	3696947.530       
P-35            	3964492.890       	3705432.730       
P-35            	3964276.790       	3705435.520       
P-350           	3967556.410       	3707304.100       
P-350           	3967555.620       	3707311.570       
P-350           	3967563.450       	3707329.330       
P-352           	3963545.850       	3695570.620       
P-352           	3963703.060       	3695464.300       
P-352           	3963854.600       	3695486.990       
P-352           	3963945.160       	3695500.540       
P-352           	3964313.310       	3695589.470       
P-353           	3963437.480       	3695503.830       
P-354           	3963586.370       	3696630.880       
P-354           	3963601.140       	3696674.790       
P-354           	3963725.820       	3696806.380       
P-354           	3963824.850       	3696867.130       
P-355           	3968523.130       	3703610.350       
P-355           	3968584.000       	3703649.780       
P-355           	3968644.250       	3703659.540       
P-355           	3968703.600       	3703657.190       
P-355           	3968760.420       	3703744.890       
P-355           	3968914.820       	3703705.630       
P-356           	3963543.820       	3695602.850       
P-356           	3963525.390       	3695589.710       
P-357           	3964379.470       	3697154.270       
P-357           	3964378.400       	3697059.540       
P-358           	3963889.400       	3697954.150       
P-358           	3963906.980       	3697967.470       
P-358           	3963927.430       	3697939.180       
P-359           	3968956.360       	3703608.070       
P-359           	3969012.130       	3703597.350       
P-359           	3969127.580       	3703589.330       
P-359           	3969218.520       	3703603.960       
P-359           	3969305.670       	3703648.210       
P-359           	3969359.520       	3703684.490       
P-359           	3969457.260       	3703751.140       
P-359           	3969618.230       	3703850.390       
P-359           	3969774.210       	3703979.190       
P-359           	3969850.080       	3704050.740       
P-359           	3969964.080       	3704166.040       
P-36            	3966562.740       	3702858.860       
P-360           	3967645.110       	3700126.660       
P-360           	3967702.030       	3699849.660       
P-361           	3959355.360       	3697154.360       
P-362           	3960677.760       	3699240.690       
P-363           	3964809.650       	3687358.790       
P-364           	3967283.860       	3701302.060       
P-364           	3967079.770       	3701435.800       
P-364           	3967001.980       	3701486.750       
P-364           	3966895.420       	3701563.050       
P-364           	3966883.220       	3701596.070       
P-364           	3966871.100       	3701619.210       
P-364           	3966532.040       	3701845.860       
P-364           	3966590.130       	3701932.590       
P-364           	3966579.260       	3701934.850       
P-364           	3966549.740       	3701940.940       
P-364           	3966175.780       	3702018.090       
P-364           	3966154.820       	3702010.610       
P-364           	3966142.810       	3702006.340       
P-364           	3966132.010       	3702008.370       
P-365           	3958709.210       	3697230.840       
P-366           	3965131.890       	3699636.860       
P-367           	3965618.860       	3704088.190       
P-367           	3965698.630       	3704086.360       
P-367           	3965712.860       	3704086.040       
P-367           	3965727.710       	3704085.580       
P-367           	3965925.810       	3704079.390       
P-368           	3966785.670       	3699838.580       
P-368           	3966826.790       	3699868.090       
P-368           	3966997.390       	3699940.370       
P-369           	3971547.040       	3704516.040       
P-369           	3971238.850       	3704159.970       
P-37            	3967885.230       	3705002.910       
P-37            	3967980.930       	3704849.080       
P-370           	3964227.130       	3691809.650       
P-370           	3964186.250       	3691782.710       
P-370           	3964324.860       	3691569.040       
P-370           	3964450.280       	3691360.760       
P-370           	3964629.210       	3691089.540       
P-371           	3961483.690       	3698008.150       
P-371           	3961525.750       	3697958.140       
P-371           	3961640.470       	3697834.530       
P-371           	3961701.260       	3697729.150       
P-372           	3964374.340       	3696816.810       
P-373           	3965896.840       	3700199.820       
P-373           	3966091.790       	3700354.370       
P-373           	3966143.580       	3700398.030       
P-374           	3959858.860       	3697768.900       
P-374           	3960286.660       	3696618.140       
P-375           	3963639.210       	3693987.370       
P-375           	3963955.790       	3694045.430       
P-376           	3964090.830       	3696328.510       
P-376           	3964344.310       	3696375.460       
P-378           	3962672.470       	3694117.170       
P-379           	3966776.050       	3704234.090       
P-379           	3966883.110       	3704071.350       
P-379           	3966898.840       	3704044.930       
P-379           	3966806.690       	3703999.980       
P-379           	3966892.640       	3703815.660       
P-379           	3966908.360       	3703697.370       
P-379           	3966904.030       	3703608.860       
P-38            	3966064.740       	3701635.380       
P-380           	3967193.340       	3700024.290       
P-380           	3967426.740       	3700134.360       
P-380           	3967597.180       	3700209.390       
P-380           	3967610.740       	3700215.350       
P-381           	3957170.210       	3692762.710       
P-381           	3957198.400       	3692780.460       
P-381           	3957375.710       	3692892.050       
P-381           	3957396.270       	3692856.020       
P-382           	3968093.440       	3703417.820       
P-382           	3968115.780       	3703402.700       
P-383           	3955795.520       	3689179.550       
P-384           	3963254.210       	3693799.750       
P-384           	3963307.320       	3693550.970       
P-385           	3969105.850       	3704652.390       
P-385           	3969041.320       	3704930.320       
P-385           	3969034.860       	3704958.160       
P-386           	3959309.890       	3695227.550       
P-387           	3969081.750       	3704638.080       
P-387           	3969065.800       	3704634.390       
P-387           	3968770.270       	3704566.180       
P-387           	3968761.410       	3704564.130       
P-388           	3966527.160       	3699732.090       
P-388           	3966764.110       	3699823.130       
P-39            	3960792.250       	3694221.590       
P-39            	3960791.980       	3694214.510       
P-39            	3960787.790       	3694134.150       
P-390           	3965413.620       	3686339.050       
P-390           	3965385.100       	3686321.550       
P-390           	3965090.430       	3686140.750       
P-390           	3965006.530       	3686076.980       
P-391           	3967006.910       	3700830.540       
P-391           	3967061.350       	3700908.280       
P-391           	3967164.860       	3701070.960       
P-391           	3967221.250       	3701156.700       
P-391           	3967233.730       	3701175.430       
P-391           	3967314.600       	3701296.860       
P-392           	3966045.540       	3686691.560       
P-392           	3966126.130       	3686736.950       
P-392           	3966220.940       	3686799.220       
P-392           	3966285.210       	3686849.050       
P-392           	3966329.140       	3686899.020       
P-392           	3966354.930       	3686980.760       
P-392           	3966368.310       	3687065.760       
P-392           	3966359.390       	3687153.450       
P-392           	3966382.890       	3687181.370       
P-392           	3966446.550       	3687213.130       
P-392           	3966653.570       	3687274.390       
P-394           	3959338.820       	3695235.600       
P-394           	3959391.990       	3695192.930       
P-394           	3959328.650       	3695131.750       
P-394           	3959395.300       	3695074.100       
P-394           	3959350.690       	3695017.910       
P-394           	3959307.570       	3694963.600       
P-394           	3959300.600       	3694962.080       
P-394           	3958901.160       	3694655.730       
P-394           	3958797.690       	3694576.370       
P-394           	3958791.920       	3694587.460       
P-394           	3958716.050       	3694521.910       
P-395           	3966777.520       	3699810.760       
P-396           	3966287.740       	3700470.400       
P-396           	3966575.270       	3700070.400       
P-396           	3966552.660       	3700056.150       
P-396           	3966389.080       	3699952.990       
P-396           	3966499.900       	3699743.100       
P-397           	3967859.520       	3700448.440       
P-398           	3967108.650       	3701444.210       
P-398           	3967297.890       	3701324.280       
P-399           	3967336.090       	3701299.340       
P-399           	3967497.790       	3701188.210       
P-4             	3966557.800       	3706699.270       
P-4             	3966680.090       	3706769.270       
P-4             	3966734.870       	3706806.540       
P-4             	3966779.800       	3706865.810       
P-4             	3966818.860       	3706896.500       
P-40            	3960783.990       	3694067.540       
P-40            	3960749.070       	3693920.150       
P-401           	3972762.060       	3704746.530       
P-401           	3972742.850       	3704750.580       
P-401           	3972740.170       	3704740.090       
P-404           	3967497.180       	3700856.360       
P-404           	3967544.660       	3700530.620       
P-404           	3967582.290       	3700396.110       
P-404           	3967603.950       	3700318.690       
P-405           	3961146.220       	3696375.910       
P-406           	3960363.380       	3696150.920       
P-406           	3960558.740       	3696205.010       
P-406           	3960638.040       	3696083.660       
P-406           	3960630.710       	3696078.460       
P-407           	3967855.080       	3704192.290       
P-407           	3967863.930       	3704179.570       
P-408           	3966113.370       	3700511.610       
P-408           	3966153.110       	3700463.850       
P-408           	3966168.660       	3700437.810       
P-409           	3966691.870       	3699325.740       
P-410           	3967276.750       	3711568.300       
P-410           	3967666.080       	3711540.070       
P-411           	3962287.400       	3700806.560       
P-411           	3962363.380       	3700471.820       
P-412           	3967895.420       	3704187.580       
P-412           	3967997.810       	3704210.400       
P-413           	3967506.880       	3701103.320       
P-413           	3967506.600       	3701098.670       
P-413           	3967501.240       	3701010.450       
P-414           	3966371.630       	3700564.910       
P-414           	3966497.670       	3700664.420       
P-414           	3966578.540       	3700728.650       
P-414           	3966612.790       	3700755.850       
P-414           	3966690.310       	3700841.690       
P-414           	3966737.260       	3700919.150       
P-414           	3966751.940       	3700943.380       
P-415           	3966214.600       	3698876.450       
P-416           	3962818.410       	3697798.850       
P-418           	3966534.540       	3699295.110       
P-419           	3962640.370       	3698198.390       
P-419           	3962653.930       	3698163.760       
P-419           	3962723.550       	3698005.760       
P-419           	3962765.700       	3697918.990       
P-419           	3962811.580       	3697818.670       
P-42            	3956650.780       	3690976.580       
P-42            	3956567.160       	3690987.030       
P-42            	3956493.980       	3690962.660       
P-42            	3956389.440       	3690872.050       
P-42            	3956086.280       	3690589.800       
P-42            	3955957.350       	3690478.290       
P-42            	3955851.180       	3690348.650       
P-421           	3965734.800       	3702496.880       
P-421           	3965732.050       	3702492.820       
P-421           	3965721.130       	3702406.400       
P-421           	3965694.430       	3702176.830       
P-421           	3965653.160       	3701857.920       
P-422           	3959135.030       	3697528.050       
P-423           	3965591.390       	3704096.960       
P-423           	3965729.410       	3704096.580       
P-423           	3965740.460       	3704096.540       
P-424           	3968203.040       	3704490.270       
P-424           	3968194.520       	3704506.650       
P-424           	3968180.540       	3704533.510       
P-424           	3968190.510       	3704535.070       
P-425           	3964363.930       	3696281.340       
P-426           	3963438.060       	3695558.250       
P-427           	3960662.370       	3698057.200       
P-430           	3964808.890       	3700023.830       
P-430           	3964636.600       	3699891.630       
P-430           	3964318.890       	3699641.660       
P-430           	3964311.340       	3699649.730       
P-430           	3964299.830       	3699662.040       
P-431           	3960292.000       	3699797.190       
P-431           	3960463.200       	3699732.570       
P-433           	3959702.550       	3690906.080       
P-434           	3961107.690       	3697806.730       
P-436           	3960396.350       	3700258.140       
P-436           	3960300.780       	3700093.780       
P-437           	3961078.420       	3699981.920       
P-437           	3961062.840       	3699987.650       
P-437           	3960812.450       	3700052.200       
P-438           	3960685.480       	3696011.550       
P-438           	3960666.770       	3695995.980       
P-438           	3960654.240       	3696015.110       
P-439           	3972109.140       	3705126.290       
P-439           	3972155.950       	3705084.990       
P-44            	3962339.010       	3701700.470       
P-44            	3962531.230       	3701749.820       
P-441           	3971587.260       	3706876.300       
P-441           	3972143.360       	3707158.680       
P-441           	3972177.490       	3706984.810       
P-441           	3972177.790       	3706958.210       
P-441           	3972152.790       	3706804.220       
P-441           	3972168.620       	3706752.030       
P-443           	3972311.400       	3706859.320       
P-443           	3972452.920       	3707038.060       
P-444           	3972260.260       	3706759.590       
P-444           	3972321.260       	3706694.480       
P-444           	3972498.840       	3706605.660       
P-445           	3960530.800       	3704691.430       
P-445           	3960514.690       	3704517.670       
P-445           	3960436.940       	3704319.580       
P-446           	3960419.800       	3703898.010       
P-447           	3971586.940       	3705873.480       
P-448           	3993861.680       	3687350.710       
P-448           	3993934.600       	3686998.620       
P-448           	3994036.670       	3686529.870       
P-448           	3994151.260       	3685619.460       
P-448           	3994203.350       	3685196.530       
P-448           	3994222.090       	3684890.280       
P-448           	3994226.250       	3684581.960       
P-448           	3994236.670       	3684427.800       
P-448           	3994330.430       	3684229.870       
P-448           	3994363.760       	3684154.880       
P-448           	3994382.510       	3684059.040       
P-448           	3994409.600       	3683761.120       
P-448           	3994459.600       	3683434.050       
P-448           	3994495.000       	3683109.050       
P-448           	3994507.500       	3682715.290       
P-448           	3994507.500       	3682398.630       
P-448           	3994509.590       	3682092.400       
P-448           	3994522.090       	3681827.790       
P-449           	3966541.300       	3708142.740       
P-449           	3966557.300       	3708082.850       
P-449           	3966615.930       	3707928.300       
P-449           	3966649.110       	3707840.830       
P-45            	3963544.770       	3697759.720       
P-45            	3963565.940       	3697774.100       
P-450           	3968018.270       	3711202.510       
P-451           	3959555.470       	3696441.920       
P-451           	3958855.790       	3696488.220       
P-454           	3959127.210       	3697888.180       
P-456           	3968306.180       	3704941.150       
P-457           	3971647.760       	3705551.740       
P-458           	3960215.320       	3693542.740       
P-458           	3960237.170       	3693707.650       
P-458           	3960247.090       	3693745.400       
P-458           	3960261.010       	3693757.320       
P-458           	3960316.640       	3693751.370       
P-458           	3960413.980       	3693733.470       
P-458           	3960457.700       	3693725.560       
P-459           	3980313.590       	3716366.500       
P-459           	3980529.200       	3716600.880       
P-459           	3980757.330       	3716854.010       
P-459           	3981004.220       	3717135.270       
P-459           	3981335.450       	3717491.510       
P-459           	3981566.720       	3717757.140       
P-459           	3981666.710       	3717850.880       
P-459           	3982007.310       	3718166.500       
P-459           	3982194.850       	3718329.010       
P-459           	3982754.220       	3718860.260       
P-459           	3983113.590       	3719179.000       
P-459           	3983576.090       	3719566.510       
P-459           	3983957.330       	3719897.770       
P-459           	3984360.460       	3720266.510       
P-459           	3984741.710       	3720591.510       
P-459           	3985082.350       	3720850.880       
P-459           	3985354.200       	3721072.760       
P-459           	3985635.460       	3721288.370       
P-459           	3985966.690       	3721522.760       
P-459           	3986229.210       	3721679.000       
P-459           	3986969.830       	3722200.890       
P-459           	3987582.340       	3722616.510       
P-459           	3988013.560       	3722907.130       
P-459           	3988457.350       	3723225.890       
P-459           	3989169.840       	3723738.390       
P-459           	3989841.720       	3724335.260       
P-459           	3990454.210       	3724844.630       
P-459           	3991426.090       	3725700.890       
P-459           	3992144.840       	3726313.380       
P-459           	3992722.960       	3726819.630       
P-459           	3993135.470       	3727200.880       
P-459           	3993446.670       	3727468.050       
P-46            	3962703.040       	3700478.780       
P-46            	3962780.340       	3700216.910       
P-460           	3966630.540       	3706096.790       
P-460           	3966667.470       	3706036.220       
P-462           	3968557.670       	3704856.470       
P-463           	3962740.980       	3694972.340       
P-463           	3962529.500       	3694951.490       
P-463           	3962239.110       	3694950.460       
P-465           	3966675.680       	3706007.520       
P-465           	3966664.720       	3706001.260       
P-465           	3966610.550       	3706081.260       
P-466           	3960198.820       	3704341.850       
P-466           	3960189.930       	3704578.680       
P-466           	3960190.090       	3704593.230       
P-466           	3960191.400       	3704716.680       
P-466           	3959968.780       	3704718.610       
P-466           	3959692.750       	3704723.370       
P-466           	3959578.560       	3704730.740       
P-467           	3960410.210       	3704210.610       
P-467           	3960403.740       	3704210.500       
P-467           	3960219.820       	3704321.610       
P-468           	3972226.700       	3706741.320       
P-469           	3968242.750       	3705220.460       
P-469           	3968215.390       	3705351.070       
P-47            	3967030.730       	3711835.070       
P-470           	3971974.660       	3706427.550       
P-470           	3971979.360       	3706432.400       
P-470           	3971989.230       	3706442.590       
P-470           	3971970.550       	3706453.380       
P-470           	3972071.760       	3706604.350       
P-471           	3966088.160       	3700579.300       
P-471           	3966098.540       	3700582.460       
P-471           	3966124.010       	3700590.200       
P-471           	3966173.860       	3700604.810       
P-471           	3966221.230       	3700636.060       
P-471           	3966258.560       	3700684.170       
P-471           	3966325.530       	3700772.010       
P-471           	3966348.360       	3700809.140       
P-471           	3966493.420       	3701015.200       
P-471           	3966531.540       	3701072.310       
P-472           	3960231.330       	3690918.470       
P-472           	3960253.200       	3690932.390       
P-472           	3960426.890       	3691036.910       
P-472           	3960518.380       	3691049.360       
P-473           	3960061.990       	3695183.260       
P-474           	3966663.510       	3699335.200       
P-474           	3966604.210       	3699319.350       
P-474           	3966548.040       	3699311.820       
P-475           	3966942.060       	3699506.810       
P-475           	3966942.660       	3699476.460       
P-475           	3966933.080       	3699448.740       
P-475           	3966880.490       	3699426.400       
P-475           	3966727.520       	3699367.660       
P-475           	3966701.110       	3699354.260       
P-476           	3967256.980       	3705111.020       
P-479           	3964301.000       	3699634.390       
P-479           	3964305.760       	3699622.390       
P-48            	3967170.140       	3702487.220       
P-480           	3966613.260       	3701052.370       
P-480           	3966748.420       	3700968.040       
P-481           	3965172.040       	3699635.450       
P-481           	3965209.920       	3699666.420       
P-481           	3965378.810       	3699795.360       
P-481           	3965408.340       	3699821.170       
P-482           	3962810.940       	3697806.120       
P-482           	3962808.360       	3697812.640       
P-483           	3956804.120       	3690885.990       
P-483           	3956865.420       	3690773.670       
P-483           	3956884.250       	3690743.120       
P-484           	3967547.740       	3701172.630       
P-485           	3965115.740       	3699591.750       
P-485           	3964868.460       	3699401.620       
P-485           	3964648.280       	3699227.620       
P-486           	3966304.730       	3707435.100       
P-486           	3966326.600       	3707318.190       
P-486           	3966315.410       	3707268.700       
P-486           	3966328.380       	3707207.610       
P-486           	3966347.360       	3707187.930       
P-487           	3966244.800       	3700470.380       
P-487           	3966260.070       	3700481.960       
P-488           	3963506.920       	3697952.790       
P-489           	3964812.880       	3700053.400       
P-49            	3959440.120       	3698134.360       
P-490           	3960823.150       	3694500.090       
P-491           	3967982.090       	3710535.580       
P-491           	3967960.260       	3710312.280       
P-491           	3967913.060       	3710315.910       
P-491           	3967793.090       	3710325.140       
P-491           	3967615.610       	3710334.720       
P-492           	3967235.280       	3705145.490       
P-493           	3959284.450       	3695184.170       
P-493           	3959275.050       	3695158.890       
P-493           	3959375.640       	3695079.380       
P-493           	3959308.580       	3694987.400       
P-493           	3959276.490       	3694982.670       
P-493           	3959087.140       	3694841.170       
P-493           	3958830.350       	3694632.840       
P-494           	3966728.520       	3705950.170       
P-495           	3958016.070       	3693953.990       
P-496           	3967048.110       	3712110.040       
P-497           	3969012.480       	3704998.530       
P-498           	3958362.370       	3694250.480       
P-499           	3968938.690       	3702045.310       
P-499           	3969184.270       	3701880.550       
P-499           	3969370.840       	3701756.320       
P-5             	3966464.690       	3706721.690       
P-50            	3967875.380       	3699285.110       
P-500           	3959135.490       	3696166.380       
P-501           	3994768.970       	3688184.540       
P-501           	3994412.720       	3687906.440       
P-501           	3994165.850       	3687725.190       
P-501           	3993940.850       	3687534.560       
P-502           	3957070.280       	3691090.710       
P-503           	3964399.570       	3692840.200       
P-503           	3964360.860       	3692974.210       
P-503           	3964337.050       	3693126.080       
P-503           	3964310.250       	3693179.670       
P-503           	3964268.560       	3693197.550       
P-503           	3964197.090       	3693185.620       
P-503           	3964057.130       	3693135.010       
P-503           	3963991.610       	3693117.150       
P-504           	3965690.110       	3703197.900       
P-504           	3965705.020       	3703195.230       
P-504           	3965804.960       	3703154.690       
P-504           	3965952.970       	3703095.250       
P-505           	3966152.220       	3688529.660       
P-506           	3971689.050       	3703054.470       
P-508           	3964763.690       	3704977.850       
P-508           	3964863.020       	3704942.920       
P-509           	3994991.900       	3688343.930       
P-509           	3995245.000       	3688159.560       
P-509           	3995435.630       	3687981.440       
P-509           	3995685.630       	3687737.700       
P-509           	3996129.380       	3687322.070       
P-509           	3996351.260       	3687115.820       
P-509           	3996445.000       	3687100.190       
P-509           	3996723.140       	3687115.820       
P-509           	3997232.520       	3687153.310       
P-509           	3997566.890       	3687172.060       
P-509           	3997798.140       	3687190.830       
P-509           	3997948.130       	3687165.810       
P-509           	3998279.390       	3687068.930       
P-509           	3998626.260       	3686968.940       
P-509           	3998885.630       	3686928.310       
P-509           	3999413.760       	3686893.940       
P-509           	3999941.880       	3686875.190       
P-509           	4000313.760       	3686868.940       
P-509           	4000601.260       	3686856.440       
P-509           	4000738.750       	3686843.940       
P-509           	4000960.630       	3686759.560       
P-509           	4001798.140       	3686422.060       
P-509           	4002035.640       	3686312.680       
P-509           	4002120.010       	3686268.930       
P-509           	4002182.520       	3686259.560       
P-509           	4002160.630       	3685865.820       
P-509           	4002135.630       	3685412.690       
P-509           	4002129.380       	3685115.820       
P-509           	4002179.380       	3684700.190       
P-509           	4002213.120       	3684496.540       
P-509           	4002213.500       	3684494.240       
P-509           	4002266.890       	3684172.060       
P-509           	4002295.010       	3683962.690       
P-51            	3960200.140       	3700367.380       
P-51            	3960094.050       	3700406.280       
P-510           	3964237.040       	3705347.620       
P-512           	3967716.620       	3712035.990       
P-512           	3968140.040       	3712032.410       
P-513           	3969415.830       	3706665.210       
P-513           	3969475.500       	3706595.630       
P-513           	3969546.410       	3706526.960       
P-513           	3969647.070       	3706450.310       
P-514           	3963092.510       	3700456.490       
P-514           	3963122.710       	3700325.490       
P-514           	3963126.470       	3700310.760       
P-514           	3963135.890       	3700273.970       
P-514           	3963182.240       	3700078.930       
P-516           	3967203.800       	3702087.730       
P-517           	3962148.310       	3701272.650       
P-517           	3962147.760       	3701245.970       
P-517           	3962127.790       	3701070.980       
P-517           	3962097.000       	3701047.960       
P-517           	3962056.200       	3700998.790       
P-517           	3962034.330       	3700958.590       
P-517           	3962035.000       	3700917.010       
P-517           	3962007.030       	3700835.040       
P-517           	3962006.130       	3700772.740       
P-517           	3962014.640       	3700690.420       
P-517           	3962022.550       	3700613.630       
P-517           	3962042.350       	3700518.280       
P-52            	3969054.610       	3702251.490       
P-52            	3969062.890       	3702263.970       
P-52            	3969078.070       	3702286.840       
P-52            	3969213.210       	3702490.490       
P-52            	3969220.320       	3702501.210       
P-52            	3969227.640       	3702511.700       
P-520           	3959724.350       	3696203.060       
P-521           	3965585.900       	3687906.880       
P-521           	3965704.840       	3687699.590       
P-522           	3967913.280       	3704129.050       
P-522           	3968040.010       	3704180.560       
P-524           	3964767.440       	3705083.550       
P-524           	3964746.830       	3705015.920       
P-525           	3968059.240       	3700786.570       
P-526           	3963203.610       	3699870.410       
P-527           	3963039.910       	3700719.110       
P-528           	3957123.050       	3692733.020       
P-528           	3957135.290       	3692740.730       
P-529           	3957028.200       	3692908.200       
P-530           	3965247.680       	3687704.730       
P-531           	3965648.660       	3703201.230       
P-531           	3965350.990       	3703176.830       
P-531           	3965328.720       	3703175.010       
P-531           	3965158.760       	3703155.670       
P-531           	3965053.450       	3703145.670       
P-531           	3965027.700       	3703147.750       
P-532           	3958624.410       	3695229.880       
P-532           	3958621.570       	3695198.010       
P-532           	3958618.780       	3695166.790       
P-532           	3958639.830       	3695169.320       
P-532           	3959039.790       	3695217.420       
P-533           	3965803.850       	3704658.190       
P-533           	3965802.530       	3704645.150       
P-533           	3965797.500       	3704595.610       
P-533           	3965794.870       	3704569.690       
P-533           	3965787.380       	3704495.970       
P-533           	3965755.080       	3704263.530       
P-533           	3965729.410       	3704096.580       
P-533           	3965727.710       	3704085.580       
P-533           	3965723.490       	3704058.130       
P-533           	3965678.790       	3703774.580       
P-533           	3965676.290       	3703752.180       
P-533           	3965667.050       	3703458.530       
P-533           	3965667.030       	3703445.800       
P-533           	3965664.470       	3703217.780       
P-534           	3958685.680       	3695873.750       
P-535           	3958137.720       	3693030.990       
P-536           	3968810.960       	3708269.780       
P-537           	3962945.070       	3697139.660       
P-538           	3963594.300       	3697761.400       
P-538           	3963602.060       	3697748.570       
P-539           	3958005.930       	3693129.100       
P-539           	3958036.910       	3693151.380       
P-539           	3958034.560       	3693166.070       
P-539           	3958094.950       	3693204.900       
P-539           	3958107.760       	3693192.490       
P-539           	3958173.800       	3693247.250       
P-54            	3965119.060       	3704420.520       
P-54            	3965113.260       	3704368.160       
P-54            	3965082.680       	3704146.510       
P-54            	3965078.510       	3704116.310       
P-54            	3965076.230       	3704099.760       
P-540           	3966868.640       	3701583.580       
P-541           	3967059.580       	3701863.300       
P-541           	3967183.770       	3702056.850       
P-544           	3968859.080       	3701981.380       
P-544           	3968730.830       	3701783.950       
P-546           	3966008.640       	3704439.290       
P-546           	3965984.350       	3704231.420       
P-546           	3965965.400       	3704097.150       
P-546           	3965964.410       	3704090.080       
P-547           	3966068.910       	3688265.390       
P-548           	3962876.530       	3695441.700       
P-548           	3963089.250       	3695453.860       
P-549           	3967898.770       	3701636.990       
P-549           	3967920.860       	3701604.700       
P-55            	3964984.330       	3703260.840       
P-55            	3965001.820       	3703153.990       
P-550           	3965184.270       	3704664.370       
P-550           	3965203.880       	3704664.210       
P-550           	3965433.160       	3704662.500       
P-551           	3962750.140       	3697693.700       
P-551           	3962840.220       	3697731.020       
P-551           	3962808.710       	3697791.060       
P-551           	3962804.560       	3697798.950       
P-551           	3962804.880       	3697806.940       
P-551           	3962805.030       	3697810.720       
P-551           	3962805.190       	3697812.560       
P-551           	3962805.760       	3697814.070       
P-553           	3971767.460       	3704788.150       
P-553           	3971710.010       	3704703.800       
P-554           	3962294.560       	3698406.590       
P-554           	3962290.510       	3698397.740       
P-554           	3962008.980       	3698435.920       
P-555           	3968381.270       	3704564.910       
P-556           	3960570.080       	3705893.560       
P-556           	3960551.880       	3705702.940       
P-556           	3960529.050       	3705468.870       
P-556           	3960524.200       	3705415.590       
P-556           	3960555.330       	3705370.490       
P-556           	3960576.650       	3705344.230       
P-557           	3966257.380       	3707615.950       
P-558           	3958687.080       	3697772.940       
P-558           	3958719.110       	3697611.010       
P-559           	3967046.930       	3699934.730       
P-559           	3967108.250       	3699800.020       
P-559           	3967237.080       	3699524.900       
P-56            	3960523.210       	3694596.870       
P-56            	3960321.640       	3694547.270       
P-56            	3960234.100       	3694534.530       
P-56            	3960157.700       	3694537.710       
P-56            	3960109.930       	3694558.430       
P-56            	3960046.260       	3694626.850       
P-56            	3959794.590       	3694908.440       
P-560           	3964842.750       	3705341.360       
P-561           	3964268.700       	3697739.200       
P-561           	3964461.360       	3698067.550       
P-561           	3964539.240       	3698033.080       
P-561           	3964784.050       	3697924.710       
P-561           	3964806.430       	3697914.810       
P-561           	3965128.860       	3698189.560       
P-561           	3965250.360       	3698422.780       
P-562           	3971443.600       	3700349.990       
P-562           	3971420.410       	3700423.930       
P-562           	3971379.490       	3700467.870       
P-562           	3971283.280       	3700526.350       
P-562           	3971221.620       	3700560.060       
P-563           	3960998.070       	3697384.340       
P-563           	3961275.610       	3697000.540       
P-563           	3961366.640       	3696964.430       
P-563           	3961436.600       	3696854.230       
P-563           	3961410.460       	3696749.440       
P-563           	3961250.830       	3696616.740       
P-563           	3961090.180       	3696483.180       
P-564           	3967993.540       	3699329.520       
P-565           	3965992.450       	3687244.630       
P-565           	3966016.580       	3687254.780       
P-565           	3966056.130       	3687269.210       
P-565           	3966136.510       	3687272.310       
P-565           	3966199.120       	3687257.950       
P-565           	3966259.350       	3687220.060       
P-565           	3966302.520       	3687177.380       
P-565           	3966318.300       	3687151.430       
P-565           	3966327.070       	3687110.900       
P-566           	3959100.740       	3695224.760       
P-566           	3959173.600       	3695232.160       
P-566           	3959227.730       	3695225.330       
P-566           	3959274.090       	3695221.860       
P-566           	3959276.530       	3695221.670       
P-567           	3962995.830       	3697164.930       
P-567           	3963123.540       	3697264.570       
P-567           	3963201.240       	3697323.970       
P-567           	3963529.090       	3697578.410       
P-568           	3960022.520       	3696174.350       
P-568           	3960125.060       	3696122.400       
P-569           	3967650.320       	3700196.040       
P-569           	3967691.680       	3700247.550       
P-57            	3971863.040       	3705726.690       
P-570           	3965704.570       	3700995.290       
P-570           	3965825.110       	3701072.190       
P-570           	3966087.770       	3701242.260       
P-570           	3966111.500       	3701259.730       
P-570           	3966132.230       	3701276.580       
P-571           	3965417.260       	3704080.100       
P-572           	3959105.440       	3691072.950       
P-572           	3959159.750       	3691352.930       
P-572           	3959135.340       	3691419.170       
P-572           	3959076.110       	3691523.690       
P-572           	3959034.300       	3691603.830       
P-572           	3959322.140       	3691791.340       
P-572           	3959626.690       	3692053.350       
P-573           	3962325.900       	3699662.420       
P-573           	3962234.730       	3699642.160       
P-574           	3967304.940       	3701303.110       
P-577           	3965964.410       	3704090.080       
P-578           	3965690.240       	3687061.390       
P-579           	3968493.760       	3703078.550       
P-579           	3968518.110       	3703062.350       
P-579           	3968562.960       	3703032.580       
P-579           	3968785.770       	3702873.190       
P-579           	3968793.440       	3702867.130       
P-579           	3968894.880       	3702787.000       
P-579           	3968937.040       	3702752.210       
P-579           	3969215.740       	3702562.030       
P-579           	3969230.410       	3702552.020       
P-58            	3960317.510       	3700281.900       
P-58            	3960223.760       	3700328.770       
P-58            	3960101.880       	3700313.150       
P-58            	3959986.260       	3700322.520       
P-58            	3959742.510       	3700372.520       
P-58            	3959664.370       	3700422.530       
P-58            	3959314.380       	3700350.640       
P-58            	3958914.390       	3700250.650       
P-58            	3958626.880       	3700178.780       
P-58            	3958326.880       	3700100.640       
P-58            	3958133.130       	3700075.650       
P-58            	3957905.020       	3700088.140       
P-58            	3957620.630       	3700125.640       
P-58            	3957283.130       	3700125.640       
P-580           	3963764.220       	3696564.710       
P-580           	3963999.810       	3696612.470       
P-581           	3966694.090       	3702234.900       
P-581           	3966741.460       	3702227.120       
P-582           	3967315.870       	3701312.880       
P-583           	3966776.150       	3700950.730       
P-583           	3966808.830       	3700930.340       
P-584           	3966991.400       	3711334.390       
P-584           	3966979.390       	3711055.890       
P-584           	3966994.710       	3711000.470       
P-585           	3968219.390       	3711509.370       
P-586           	3959058.780       	3695237.180       
P-586           	3959063.700       	3695233.020       
P-587           	3964913.040       	3704914.810       
P-588           	3966490.820       	3687801.280       
P-589           	3965072.640       	3704087.330       
P-589           	3965080.260       	3704087.140       
P-589           	3965184.480       	3704084.440       
P-59            	3967770.470       	3699505.660       
P-59            	3967816.800       	3699319.970       
P-59            	3967824.150       	3699290.530       
P-590           	3969065.570       	3708403.440       
P-590           	3969194.530       	3708344.440       
P-591           	3969206.300       	3708360.850       
P-591           	3969154.120       	3708638.520       
P-591           	3969132.400       	3708746.840       
P-591           	3969091.930       	3708927.960       
P-592           	3964171.630       	3697509.440       
P-592           	3964344.960       	3697503.950       
P-592           	3964365.080       	3697503.310       
P-593           	3963387.690       	3695849.590       
P-593           	3963377.060       	3695893.590       
P-594           	3967754.570       	3701966.750       
P-594           	3967805.840       	3702047.530       
P-594           	3967937.930       	3702242.720       
P-594           	3967970.060       	3702293.370       
P-595           	3960596.240       	3693656.420       
P-595           	3960563.360       	3693563.910       
P-596           	3968275.890       	3703226.420       
P-596           	3968295.750       	3703217.180       
P-596           	3968474.990       	3703091.180       
P-597           	3969082.370       	3708972.460       
P-599           	3964367.230       	3696034.520       
P-6             	3972851.210       	3704538.890       
P-6             	3972898.140       	3704550.200       
P-6             	3973110.610       	3704522.060       
P-6             	3973170.000       	3704531.430       
P-6             	3973210.640       	3704590.820       
P-6             	3973276.260       	3704581.430       
P-6             	3973279.380       	3704775.190       
P-6             	3973338.760       	3704868.930       
P-6             	3973863.770       	3704837.680       
P-6             	3974391.880       	3704812.700       
P-6             	3974854.360       	3704793.950       
P-6             	3975523.140       	3704772.060       
P-6             	3976070.010       	3704728.310       
P-6             	3976570.010       	3704687.690       
P-6             	3977126.270       	3704640.820       
P-6             	3977585.630       	3704606.430       
P-6             	3977985.640       	3704568.930       
P-6             	3978195.000       	3704468.940       
P-6             	3978491.890       	3704228.310       
P-6             	3978973.140       	3703834.570       
P-6             	3979426.250       	3703500.190       
P-6             	3979670.000       	3703318.930       
P-6             	3979904.380       	3703225.190       
P-6             	3980610.630       	3702962.690       
P-6             	3981401.270       	3702643.940       
P-6             	3981951.250       	3702422.070       
P-6             	3982110.630       	3702347.070       
P-6             	3982282.510       	3702253.310       
P-60            	3960502.990       	3694257.700       
P-60            	3960474.130       	3694254.920       
P-60            	3960471.790       	3694254.690       
P-60            	3960319.720       	3694244.360       
P-60            	3960244.120       	3694213.790       
P-60            	3960187.130       	3694168.670       
P-60            	3960121.490       	3694102.000       
P-60            	3960074.670       	3694032.160       
P-60            	3960062.500       	3694007.550       
P-60            	3960025.980       	3693933.730       
P-600           	3967219.800       	3702112.120       
P-600           	3967313.900       	3702253.150       
P-601           	3963667.570       	3697431.980       
P-602           	3963534.700       	3697610.340       
P-603           	3964369.460       	3696565.650       
P-604           	3960623.270       	3699670.790       
P-604           	3960639.790       	3699670.910       
P-606           	3966833.310       	3704933.460       
P-606           	3966740.180       	3705086.040       
P-607           	3964605.130       	3699250.630       
P-607           	3964621.380       	3699230.400       
P-608           	3965803.850       	3704658.190       
P-608           	3965866.080       	3704659.750       
P-608           	3966026.610       	3704654.140       
P-608           	3966025.220       	3704643.580       
P-608           	3966005.650       	3704495.410       
P-608           	3965991.070       	3704385.850       
P-608           	3965970.710       	3704190.350       
P-609           	3969067.930       	3702238.180       
P-609           	3969195.430       	3702158.450       
P-609           	3969343.020       	3702074.410       
P-609           	3969339.240       	3702067.170       
P-609           	3969336.590       	3702062.120       
P-609           	3969454.000       	3701993.100       
P-609           	3969558.930       	3701944.920       
P-609           	3969672.370       	3701917.940       
P-609           	3969803.220       	3701910.080       
P-609           	3970178.440       	3701898.930       
P-609           	3970297.030       	3701896.400       
P-609           	3970303.500       	3701837.790       
P-609           	3970316.110       	3701742.700       
P-609           	3970308.670       	3701723.760       
P-609           	3970286.800       	3701705.690       
P-609           	3970245.920       	3701698.370       
P-609           	3970122.280       	3701670.900       
P-609           	3970012.850       	3701654.740       
P-609           	3969899.920       	3701649.610       
P-609           	3969729.290       	3701651.290       
P-61            	3960531.180       	3694178.100       
P-61            	3960515.920       	3694100.290       
P-61            	3960491.350       	3694020.920       
P-61            	3960453.690       	3693951.380       
P-610           	3965982.250       	3704076.350       
P-610           	3965984.070       	3704059.580       
P-610           	3966000.070       	3703813.840       
P-610           	3966006.850       	3703718.280       
P-611           	3967456.810       	3712471.640       
P-611           	3967166.010       	3712486.780       
P-612           	3965042.960       	3703935.610       
P-612           	3965033.670       	3703855.770       
P-612           	3965037.470       	3703838.770       
P-612           	3965042.510       	3703816.250       
P-612           	3965024.220       	3703623.420       
P-612           	3965019.990       	3703578.890       
P-612           	3964997.080       	3703473.200       
P-612           	3964987.520       	3703355.630       
P-613           	3965872.100       	3704666.990       
P-613           	3966015.230       	3704662.140       
P-613           	3966034.700       	3704659.400       
P-614           	3967848.000       	3699275.420       
P-614           	3967962.690       	3698929.440       
P-614           	3968093.950       	3698457.580       
P-614           	3968168.950       	3698185.690       
P-614           	3968481.440       	3697229.450       
P-614           	3968593.950       	3696870.070       
P-614           	3968643.950       	3696704.460       
P-614           	3968550.190       	3696679.440       
P-614           	3968568.950       	3696579.450       
P-614           	3968562.700       	3696410.690       
P-614           	3968515.830       	3696245.080       
P-614           	3968459.570       	3696079.450       
P-614           	3968397.070       	3695870.070       
P-614           	3968378.320       	3695710.700       
P-614           	3968403.320       	3695535.700       
P-614           	3968475.190       	3695326.320       
P-614           	3968581.450       	3695132.570       
P-614           	3968850.200       	3694651.330       
P-615           	3970355.220       	3701898.770       
P-615           	3970457.930       	3701905.230       
P-615           	3970652.500       	3701943.010       
P-615           	3970875.480       	3702008.950       
P-618           	3965936.570       	3704082.080       
P-618           	3965938.880       	3704082.000       
P-619           	3967617.160       	3700187.050       
P-619           	3967664.420       	3699978.730       
P-619           	3967709.940       	3699774.250       
P-619           	3967704.320       	3699754.900       
P-619           	3967760.800       	3699543.120       
P-62            	3962574.570       	3694625.320       
P-620           	3959602.520       	3693422.420       
P-621           	3967224.840       	3702086.150       
P-622           	3965963.470       	3702040.040       
P-622           	3966091.340       	3702016.010       
P-623           	3967620.330       	3700200.310       
P-624           	3970536.540       	3703774.640       
P-624           	3970538.530       	3703754.690       
P-624           	3970489.340       	3703538.430       
P-624           	3970519.310       	3703460.690       
P-624           	3970556.080       	3703407.820       
P-624           	3970782.260       	3703337.710       
P-626           	3959618.030       	3692189.130       
P-626           	3959643.570       	3692220.880       
P-626           	3959707.190       	3692299.970       
P-626           	3959766.550       	3692404.010       
P-626           	3959795.960       	3692537.000       
P-626           	3959805.920       	3692599.480       
P-628           	3966539.680       	3705398.380       
P-629           	3958997.230       	3695326.460       
P-629           	3959000.530       	3695320.550       
P-629           	3959030.660       	3695266.440       
P-63            	3959457.420       	3692554.030       
P-63            	3959429.970       	3692480.730       
P-63            	3959378.990       	3692411.650       
P-630           	3963568.880       	3694817.920       
P-630           	3963575.880       	3694879.650       
P-630           	3963596.980       	3694915.930       
P-630           	3963634.970       	3694928.520       
P-630           	3963801.300       	3694963.240       
P-630           	3964104.020       	3695031.310       
P-630           	3964263.180       	3695067.550       
P-630           	3964409.590       	3695098.430       
P-630           	3964434.660       	3695099.970       
P-630           	3964451.920       	3695091.130       
P-630           	3964464.950       	3695061.670       
P-630           	3964460.340       	3694886.440       
P-630           	3964460.380       	3694831.100       
P-630           	3964453.810       	3694812.750       
P-630           	3964434.080       	3694799.310       
P-630           	3964339.660       	3694781.240       
P-630           	3964186.810       	3694750.870       
P-630           	3963934.050       	3694692.010       
P-630           	3963786.130       	3694653.290       
P-630           	3963654.160       	3694624.170       
P-630           	3963610.860       	3694620.060       
P-630           	3963577.600       	3694630.930       
P-630           	3963558.390       	3694654.580       
P-631           	3968328.050       	3701184.130       
P-631           	3968508.470       	3701455.880       
P-633           	3967941.220       	3703191.590       
P-634           	3961024.760       	3707130.700       
P-634           	3960837.030       	3706873.470       
P-634           	3960708.940       	3706636.390       
P-634           	3960624.430       	3706373.630       
P-634           	3960588.030       	3706102.040       
P-634           	3960576.580       	3705965.460       
P-635           	3963190.450       	3695086.510       
P-635           	3963172.260       	3694887.140       
P-635           	3963156.230       	3694719.920       
P-636           	3963005.950       	3694689.440       
P-636           	3963080.400       	3694707.280       
P-637           	3962847.430       	3694980.110       
P-638           	3960551.750       	3693468.720       
P-638           	3960552.660       	3693462.870       
P-638           	3960569.810       	3693351.740       
P-638           	3960581.960       	3693256.430       
P-638           	3960606.910       	3693087.020       
P-638           	3960649.770       	3692841.570       
P-638           	3960650.570       	3692834.350       
P-638           	3960659.740       	3692752.040       
P-639           	3960591.640       	3692682.070       
P-639           	3960640.660       	3692666.370       
P-639           	3960648.340       	3692666.630       
P-64            	3958691.950       	3695752.550       
P-641           	3957758.720       	3704828.240       
P-641           	3957171.210       	3704903.230       
P-641           	3956836.840       	3704931.370       
P-641           	3956677.460       	3704934.500       
P-641           	3956158.710       	3704987.620       
P-641           	3955599.340       	3704981.370       
P-641           	3954946.220       	3704950.120       
P-641           	3954902.480       	3704918.870       
P-642           	3961283.110       	3699764.250       
P-642           	3961294.590       	3699604.600       
P-642           	3961290.130       	3699573.270       
P-642           	3961270.770       	3699550.930       
P-642           	3961226.050       	3699543.470       
P-642           	3961051.960       	3699556.680       
P-643           	3965601.880       	3703186.850       
P-643           	3965657.710       	3703193.130       
P-644           	3964841.040       	3705365.900       
P-645           	3959610.910       	3693472.890       
P-645           	3959628.550       	3693566.980       
P-646           	3962832.340       	3694961.300       
P-649           	3938402.470       	3705906.370       
P-65            	3965475.050       	3704652.690       
P-65            	3965429.650       	3704303.700       
P-650           	3960243.010       	3693467.390       
P-651           	3958731.440       	3696488.390       
P-651           	3958342.640       	3696524.570       
P-651           	3957805.010       	3696606.890       
P-651           	3957176.890       	3696644.390       
P-651           	3956489.390       	3696713.150       
P-651           	3955867.520       	3696760.020       
P-651           	3955345.630       	3696794.400       
P-651           	3954655.000       	3696850.640       
P-652           	3960545.540       	3692619.300       
P-652           	3960522.970       	3692577.130       
P-652           	3960491.600       	3692554.560       
P-652           	3960441.580       	3692552.580       
P-652           	3960349.380       	3692564.380       
P-652           	3960306.220       	3692565.360       
P-652           	3960263.060       	3692560.440       
P-652           	3960239.530       	3692553.580       
P-653           	3957720.810       	3693287.690       
P-653           	3957892.940       	3693077.530       
P-654           	3957641.270       	3693333.290       
P-654           	3957630.750       	3693313.800       
P-654           	3957653.270       	3693276.300       
P-654           	3957783.770       	3693112.790       
P-654           	3957971.420       	3692882.900       
P-655           	3960669.270       	3692666.520       
P-655           	3960666.460       	3692601.510       
P-655           	3960658.220       	3692410.610       
P-656           	3937021.230       	3706350.110       
P-656           	3936939.970       	3707106.360       
P-656           	3936918.100       	3707503.240       
P-656           	3936889.970       	3707900.120       
P-656           	3936893.100       	3708053.240       
P-656           	3936927.470       	3708546.990       
P-656           	3936958.720       	3708968.870       
P-656           	3936943.090       	3709097.000       
P-657           	3963753.760       	3692585.460       
P-657           	3963884.380       	3692383.970       
P-658           	3959825.320       	3695608.030       
P-658           	3959780.200       	3695614.800       
P-658           	3959759.650       	3695605.690       
P-658           	3959718.750       	3695587.560       
P-658           	3959609.480       	3695501.400       
P-658           	3959467.170       	3695369.710       
P-658           	3959335.790       	3695258.810       
P-660           	3965377.260       	3704090.770       
P-660           	3965093.330       	3704095.780       
P-661           	3966016.040       	3703076.600       
P-663           	3965667.510       	3703192.230       
P-663           	3965682.440       	3703190.840       
P-663           	3965682.110       	3703194.690       
P-665           	3955614.400       	3688653.570       
P-666           	3959134.710       	3695948.090       
P-666           	3959066.060       	3695886.040       
P-666           	3959020.730       	3695780.830       
P-667           	3965516.460       	3702636.830       
P-667           	3965513.780       	3702512.730       
P-667           	3965489.610       	3702179.960       
P-668           	3968573.010       	3703215.880       
P-668           	3968622.660       	3703289.950       
P-668           	3968629.730       	3703315.480       
P-668           	3968629.170       	3703349.870       
P-668           	3968616.870       	3703372.100       
P-668           	3968597.080       	3703392.730       
P-669           	3968489.110       	3703089.530       
P-67            	3965487.600       	3702152.270       
P-67            	3965479.830       	3702015.930       
P-67            	3965456.720       	3701799.640       
P-67            	3965447.230       	3701718.920       
P-67            	3965441.010       	3701692.200       
P-67            	3965436.360       	3701672.230       
P-67            	3965441.170       	3701667.320       
P-67            	3965456.940       	3701651.240       
P-670           	3960665.640       	3692699.180       
P-672           	3965912.440       	3700525.860       
P-673           	3956982.180       	3692918.330       
P-674           	3972667.010       	3707269.170       
P-674           	3972655.770       	3707277.800       
P-675           	3963292.120       	3695469.680       
P-675           	3963267.910       	3695310.900       
P-675           	3963237.150       	3695310.410       
P-675           	3963226.630       	3695232.630       
P-675           	3963207.370       	3695232.340       
P-676           	3969062.810       	3708948.910       
P-677           	3963288.470       	3698163.770       
P-677           	3963302.320       	3698175.980       
P-679           	3960413.260       	3691373.890       
P-679           	3960442.800       	3691412.500       
P-679           	3960458.700       	3691476.100       
P-679           	3960467.790       	3691744.170       
P-679           	3960481.410       	3691980.410       
P-679           	3960481.410       	3692037.210       
P-679           	3960456.420       	3692091.730       
P-679           	3960410.990       	3692116.710       
P-679           	3960324.670       	3692132.630       
P-679           	3960097.500       	3692164.420       
P-679           	3960022.530       	3692162.150       
P-679           	3959958.930       	3692139.440       
P-679           	3959908.960       	3692096.280       
P-679           	3959877.760       	3692058.360       
P-679           	3959836.320       	3692014.570       
P-68            	3965350.990       	3703176.830       
P-68            	3965350.600       	3703190.480       
P-682           	3959285.190       	3692421.150       
P-682           	3959228.530       	3692486.530       
P-682           	3959216.240       	3692500.700       
P-682           	3959194.520       	3692557.620       
P-682           	3959196.160       	3692617.500       
P-682           	3959224.580       	3692792.320       
P-682           	3959253.130       	3692965.510       
P-682           	3959317.060       	3693353.350       
P-682           	3959320.840       	3693398.060       
P-682           	3959320.450       	3693465.300       
P-682           	3959335.560       	3693496.760       
P-682           	3959358.850       	3693504.960       
P-682           	3959387.510       	3693502.800       
P-682           	3959450.330       	3693480.390       
P-682           	3959577.720       	3693457.040       
P-684           	3962875.640       	3695413.290       
P-684           	3962875.660       	3695177.640       
P-684           	3963175.970       	3695170.970       
P-685           	3964349.220       	3698792.830       
P-685           	3964496.800       	3698526.280       
P-685           	3964518.130       	3698488.010       
P-685           	3964559.740       	3698396.760       
P-685           	3964419.550       	3698178.140       
P-685           	3964222.700       	3697871.180       
P-686           	3966097.610       	3703071.350       
P-686           	3966163.170       	3703064.080       
P-686           	3966208.350       	3703059.070       
P-686           	3966301.390       	3703039.970       
P-686           	3966359.810       	3703018.420       
P-686           	3966362.550       	3703016.820       
P-686           	3966414.650       	3702986.520       
P-687           	3956838.960       	3688868.380       
P-688           	3967479.120       	3701545.150       
P-688           	3967641.630       	3701794.320       
P-689           	3968221.390       	3704485.730       
P-69            	3961788.810       	3695249.470       
P-69            	3961293.110       	3695229.510       
P-69            	3960930.440       	3695212.100       
P-69            	3960911.350       	3695211.190       
P-690           	3965397.330       	3704074.660       
P-690           	3965395.430       	3704061.430       
P-690           	3965359.340       	3703810.190       
P-690           	3965318.000       	3703625.850       
P-692           	3965776.630       	3702478.750       
P-693           	3970856.730       	3705050.230       
P-694           	3969012.480       	3704998.530       
P-694           	3968998.370       	3704995.340       
P-694           	3969001.700       	3704974.980       
P-695           	3964013.170       	3697838.930       
P-695           	3964105.310       	3697781.320       
P-695           	3964163.610       	3697754.710       
P-698           	3965643.660       	3701788.520       
P-698           	3965630.260       	3701673.160       
P-698           	3965609.720       	3701621.910       
P-698           	3965579.030       	3701590.200       
P-699           	3966766.630       	3705121.660       
P-699           	3966752.100       	3705152.370       
P-699           	3966735.030       	3705188.420       
P-699           	3966748.400       	3705196.660       
P-7             	3967936.930       	3704074.530       
P-7             	3967952.670       	3704051.880       
P-70            	3971810.120       	3704781.990       
P-700           	3965453.590       	3686321.510       
P-700           	3965474.700       	3686334.750       
P-701           	3964910.690       	3687194.980       
P-701           	3965017.790       	3687006.150       
P-701           	3965221.760       	3686676.620       
P-702           	3967214.770       	3701628.540       
P-702           	3967252.290       	3701689.700       
P-702           	3967415.400       	3701932.030       
P-703           	3962967.090       	3697185.270       
P-703           	3962969.890       	3697163.020       
P-704           	3967578.550       	3702198.240       
P-704           	3967744.130       	3702433.140       
P-705           	3968931.320       	3702080.740       
P-705           	3968994.590       	3702170.550       
P-706           	3969267.590       	3702563.870       
P-706           	3969358.270       	3702476.070       
P-706           	3969516.210       	3702402.160       
P-706           	3969708.290       	3702321.570       
P-706           	3969855.240       	3702272.620       
P-706           	3969934.820       	3702250.460       
P-706           	3970055.670       	3702228.970       
P-706           	3970170.440       	3702203.480       
P-706           	3970281.480       	3702167.330       
P-707           	3968253.540       	3703219.080       
P-708           	3966251.000       	3704091.090       
P-708           	3966254.630       	3704126.150       
P-709           	3968424.640       	3704568.720       
P-709           	3968438.860       	3704489.970       
P-709           	3968735.570       	3704558.180       
P-71            	3958672.020       	3696878.510       
P-71            	3959128.440       	3696847.930       
P-711           	3968905.100       	3702043.520       
P-713           	3964911.650       	3704923.820       
P-713           	3964917.330       	3704940.090       
P-713           	3964982.220       	3705126.040       
P-713           	3964998.130       	3705171.600       
P-713           	3965033.210       	3705262.150       
P-713           	3965059.760       	3705274.160       
P-713           	3965154.810       	3705244.170       
P-713           	3965175.270       	3705237.710       
P-713           	3965227.270       	3705218.050       
P-713           	3965231.140       	3705199.400       
P-713           	3965156.930       	3704979.690       
P-713           	3965089.030       	3704778.670       
P-713           	3965084.950       	3704766.600       
P-714           	3993684.600       	3687390.800       
P-714           	3993253.340       	3687259.560       
P-714           	3992947.100       	3687209.560       
P-714           	3992956.470       	3687031.430       
P-714           	3992565.840       	3686953.310       
P-714           	3992581.490       	3686906.440       
P-714           	3992362.710       	3686809.570       
P-714           	3991915.870       	3686606.440       
P-714           	3991640.850       	3686522.060       
P-714           	3991378.350       	3686465.810       
P-714           	3991137.710       	3686493.950       
P-714           	3990978.340       	3686522.060       
P-714           	3990818.980       	3686518.930       
P-714           	3990684.600       	3686528.310       
P-714           	3990200.220       	3686637.690       
P-714           	3989703.340       	3686747.060       
P-714           	3989615.850       	3686756.450       
P-714           	3989515.840       	3686747.060       
P-714           	3989134.600       	3686625.190       
P-714           	3988781.470       	3686531.430       
P-714           	3988500.220       	3686440.790       
P-714           	3988065.830       	3686322.070       
P-714           	3987547.090       	3686162.690       
P-714           	3987525.220       	3686256.450       
P-716           	3965778.740       	3704666.240       
P-717           	3972697.880       	3704555.830       
P-717           	3972715.450       	3704553.440       
P-718           	3978019.140       	3679384.750       
P-719           	3963926.830       	3697777.350       
P-72            	3964986.710       	3703001.990       
P-721           	3964494.890       	3699111.510       
P-721           	3964617.270       	3699204.160       
P-722           	3967455.910       	3710449.800       
P-722           	3967469.920       	3710638.440       
P-722           	3967472.020       	3710707.420       
P-722           	3967479.740       	3710852.560       
P-722           	3967484.960       	3710939.750       
P-722           	3967499.880       	3710954.200       
P-722           	3967588.890       	3710953.720       
P-722           	3967819.240       	3710935.660       
P-724           	3939312.880       	3706552.890       
P-724           	3939856.630       	3707159.150       
P-724           	3940159.770       	3707496.640       
P-724           	3940306.640       	3707740.390       
P-724           	3940387.880       	3707959.140       
P-724           	3940537.890       	3708384.150       
P-724           	3940725.390       	3708812.260       
P-724           	3940925.380       	3709134.150       
P-724           	3941175.380       	3709462.270       
P-724           	3941331.630       	3709643.510       
P-724           	3941669.130       	3710043.520       
P-724           	3941762.890       	3710181.020       
P-724           	3941844.130       	3710343.510       
P-724           	3941956.640       	3710562.260       
P-725           	3964021.390       	3692828.300       
P-725           	3964000.540       	3692905.720       
P-725           	3963955.880       	3693009.930       
P-725           	3963943.970       	3693057.590       
P-728           	3961434.150       	3699768.100       
P-728           	3961648.290       	3699683.360       
P-729           	3959837.980       	3692800.650       
P-729           	3959841.730       	3692822.960       
P-729           	3959878.330       	3693040.670       
P-73            	3965327.890       	3703613.370       
P-73            	3965329.280       	3703611.020       
P-730           	3960640.840       	3692722.940       
P-730           	3960612.210       	3692722.290       
P-730           	3960577.890       	3692738.940       
P-730           	3960562.210       	3692765.430       
P-730           	3960547.500       	3692821.330       
P-730           	3960540.640       	3692857.630       
P-730           	3960527.870       	3692883.140       
P-730           	3960507.280       	3692894.900       
P-730           	3960464.130       	3692905.690       
P-730           	3960413.110       	3692911.570       
P-730           	3960373.910       	3692917.450       
P-730           	3960360.400       	3692918.770       
P-730           	3960333.690       	3692921.370       
P-730           	3960306.220       	3692920.390       
P-730           	3960281.710       	3692912.550       
P-730           	3960268.960       	3692891.960       
P-730           	3960263.060       	3692871.350       
P-730           	3960265.020       	3692842.920       
P-730           	3960280.730       	3692823.290       
P-730           	3960308.180       	3692819.370       
P-730           	3960339.570       	3692817.410       
P-730           	3960397.440       	3692821.330       
P-730           	3960437.650       	3692816.430       
P-730           	3960466.090       	3692813.490       
P-730           	3960488.660       	3692789.960       
P-730           	3960514.150       	3692737.970       
P-730           	3960541.620       	3692701.680       
P-731           	3966683.020       	3704273.370       
P-731           	3966570.330       	3704475.450       
P-731           	3966763.780       	3704599.990       
P-731           	3966788.690       	3704616.030       
P-731           	3966778.150       	3704633.720       
P-731           	3966751.720       	3704678.090       
P-731           	3966689.770       	3704782.070       
P-731           	3966676.780       	3704803.870       
P-731           	3966687.020       	3704810.540       
P-731           	3966804.030       	3704886.680       
P-731           	3966831.260       	3704904.400       
P-733           	3965973.260       	3702407.170       
P-733           	3965993.520       	3702825.720       
P-733           	3966004.180       	3703045.990       
P-734           	3970982.390       	3704527.880       
P-735           	3968135.640       	3702546.050       
P-735           	3968297.050       	3702794.180       
P-736           	3968364.210       	3702901.450       
P-736           	3968479.400       	3703074.930       
P-737           	3965978.750       	3702310.820       
P-737           	3965947.420       	3702051.490       
P-739           	3968361.140       	3704711.550       
P-739           	3968343.010       	3704787.280       
P-74            	3965577.340       	3702611.290       
P-740           	3966135.670       	3702347.640       
P-740           	3966337.680       	3702306.060       
P-740           	3966419.000       	3702290.140       
P-741           	3972326.980       	3704970.530       
P-741           	3972336.000       	3704980.390       
P-741           	3972507.370       	3705167.570       
P-741           	3972326.670       	3705330.550       
P-742           	3968464.210       	3702707.420       
P-742           	3968539.880       	3702661.990       
P-742           	3968575.510       	3702655.350       
P-742           	3968596.360       	3702671.230       
P-742           	3968612.950       	3702708.480       
P-744           	3938325.380       	3705490.390       
P-744           	3938244.140       	3705331.010       
P-744           	3937937.890       	3704731.020       
P-744           	3937997.260       	3704702.890       
P-744           	3937794.140       	3704318.510       
P-744           	3937766.010       	3704293.510       
P-744           	3937644.130       	3703990.390       
P-744           	3937459.750       	3703327.910       
P-744           	3937297.260       	3702959.140       
P-744           	3937510.030       	3702661.290       
P-744           	3937532.410       	3702504.630       
P-744           	3937353.370       	3702370.360       
P-744           	3937151.960       	3702303.220       
P-745           	3961386.980       	3707424.310       
P-745           	3961670.160       	3707560.770       
P-745           	3961889.540       	3707638.650       
P-745           	3962104.330       	3707704.440       
P-745           	3962341.410       	3707725.050       
P-747           	3972074.360       	3703539.080       
P-748           	3971933.540       	3705677.710       
P-75            	3958742.540       	3696323.400       
P-75            	3958729.980       	3696148.330       
P-750           	3967253.380       	3705147.600       
P-751           	3962041.550       	3699330.740       
P-751           	3962080.700       	3699193.710       
P-751           	3962112.720       	3698996.620       
P-751           	3962131.740       	3698903.390       
P-751           	3962129.350       	3698765.990       
P-753           	3970159.010       	3704357.440       
P-755           	3964125.620       	3692673.420       
P-755           	3964170.280       	3692655.600       
P-755           	3964194.370       	3692665.720       
P-755           	3964226.870       	3692679.390       
P-755           	3964322.150       	3692724.070       
P-755           	3964375.760       	3692744.910       
P-756           	3960214.040       	3692468.260       
P-756           	3960201.260       	3692446.670       
P-756           	3960167.940       	3692430.000       
P-756           	3960142.430       	3692435.890       
P-756           	3960123.800       	3692462.380       
P-756           	3960122.820       	3692486.890       
P-756           	3960130.250       	3692509.190       
P-756           	3960130.660       	3692510.440       
P-756           	3960142.430       	3692522.200       
P-756           	3960165.000       	3692536.910       
P-757           	3963748.140       	3692633.850       
P-757           	3963917.170       	3692682.390       
P-757           	3963982.680       	3692715.130       
P-758           	3965634.380       	3703000.320       
P-758           	3965645.970       	3703112.880       
P-759           	3936608.710       	3705928.220       
P-759           	3935886.850       	3705965.740       
P-759           	3935146.220       	3706015.740       
P-759           	3934374.350       	3706065.740       
P-759           	3934058.710       	3706078.240       
P-759           	3933155.600       	3706134.480       
P-76            	3964373.520       	3705093.240       
P-760           	3967381.140       	3704919.850       
P-762           	3966862.470       	3704924.630       
P-762           	3966896.580       	3704946.690       
P-762           	3967008.560       	3705019.430       
P-762           	3967072.140       	3705052.730       
P-762           	3967218.190       	3705149.800       
P-763           	3971259.370       	3703173.160       
P-763           	3971433.330       	3703112.420       
P-764           	3958045.520       	3698011.540       
P-765           	3966614.940       	3702850.640       
P-765           	3966796.320       	3702725.450       
P-766           	3965619.480       	3702748.630       
P-767           	3957055.010       	3691966.230       
P-767           	3957065.460       	3691663.070       
P-768           	3960535.330       	3704747.150       
P-769           	3968747.710       	3704905.880       
P-77            	3958305.500       	3698432.560       
P-770           	3967076.210       	3701465.630       
P-771           	3968413.160       	3704456.510       
P-772           	3960554.640       	3703077.180       
P-772           	3960685.890       	3702725.630       
P-772           	3960837.380       	3702228.330       
P-772           	3960930.350       	3702024.790       
P-773           	3962031.960       	3701833.640       
P-773           	3962005.520       	3701912.790       
P-773           	3961979.960       	3701905.610       
P-773           	3961931.420       	3702086.420       
P-774           	3962974.280       	3697111.740       
P-774           	3963008.370       	3696886.620       
P-775           	3957543.090       	3693511.580       
P-775           	3957549.420       	3693503.640       
P-776           	3962107.120       	3702126.760       
P-777           	3971707.500       	3705518.700       
P-778           	3966722.200       	3705115.490       
P-779           	3959756.760       	3691948.620       
P-779           	3959702.240       	3691894.110       
P-779           	3959670.430       	3691839.570       
P-779           	3959670.430       	3691773.690       
P-779           	3959720.410       	3691696.460       
P-779           	3959809.000       	3691610.150       
P-779           	3959905.060       	3691489.090       
P-779           	3959995.270       	3691373.890       
P-779           	3960052.070       	3691303.470       
P-779           	3960057.530       	3691299.180       
P-78            	3962360.770       	3701021.010       
P-78            	3962267.580       	3700998.720       
P-780           	3962077.750       	3704595.490       
P-780           	3962080.500       	3704666.800       
P-780           	3962066.780       	3704732.650       
P-780           	3962055.800       	3704834.140       
P-780           	3962083.230       	3704995.990       
P-781           	3962144.830       	3704418.460       
P-782           	3961858.390       	3694561.380       
P-782           	3961933.940       	3694615.000       
P-782           	3962023.270       	3694632.870       
P-782           	3962273.310       	3694635.830       
P-783           	3962667.780       	3694625.530       
P-783           	3962793.650       	3694629.880       
P-783           	3962849.300       	3694637.150       
P-784           	3960075.580       	3691716.120       
P-784           	3960137.100       	3691635.230       
P-785           	3954824.340       	3704937.620       
P-785           	3954124.350       	3704925.120       
P-785           	3953577.480       	3704937.620       
P-785           	3952949.350       	3704975.120       
P-785           	3951958.720       	3705015.740       
P-785           	3951096.230       	3705068.860       
P-785           	3950005.590       	3705125.110       
P-785           	3949124.350       	3705140.750       
P-785           	3948402.460       	3705143.870       
P-785           	3947946.220       	3705190.730       
P-785           	3947286.840       	3705259.490       
P-785           	3947146.210       	3705281.360       
P-785           	3945958.720       	3705443.870       
P-786           	3972341.320       	3704054.530       
P-787           	3972839.820       	3706343.180       
P-787           	3973190.520       	3706111.320       
P-787           	3972904.630       	3705506.230       
P-787           	3972877.530       	3705411.460       
P-788           	3959830.270       	3691983.250       
P-79            	3964767.440       	3705083.550       
P-79            	3964785.050       	3705079.420       
P-79            	3964765.830       	3704990.950       
P-79            	3964855.910       	3704956.600       
P-79            	3964911.650       	3704923.820       
P-79            	3964912.910       	3704923.070       
P-79            	3964967.430       	3704873.000       
P-79            	3965084.950       	3704766.600       
P-79            	3965182.700       	3704678.110       
P-79            	3965203.880       	3704664.210       
P-79            	3965221.650       	3704652.570       
P-79            	3965475.050       	3704652.690       
P-791           	3972525.420       	3704759.210       
P-792           	3960566.710       	3704717.520       
P-792           	3960950.150       	3704685.220       
P-792           	3961399.490       	3704627.850       
P-792           	3961817.700       	3704509.760       
P-792           	3961862.990       	3704496.430       
P-793           	3970560.710       	3700961.180       
P-793           	3970648.000       	3701084.130       
P-793           	3970794.570       	3701294.910       
P-793           	3970873.260       	3701407.540       
P-793           	3970928.440       	3701473.490       
P-793           	3970956.020       	3701493.620       
P-794           	3972213.310       	3705025.820       
P-794           	3972189.650       	3705001.380       
P-794           	3972193.880       	3705000.430       
P-794           	3972210.120       	3704996.780       
P-794           	3972271.550       	3704982.980       
P-794           	3972326.980       	3704970.530       
P-794           	3972363.560       	3704962.320       
P-794           	3972409.150       	3704947.930       
P-794           	3972415.330       	3704941.600       
P-795           	3970825.760       	3700735.710       
P-795           	3970971.460       	3700639.170       
P-795           	3971043.310       	3700618.230       
P-796           	3971694.830       	3705986.820       
P-796           	3971764.020       	3706058.270       
P-796           	3971869.960       	3706234.650       
P-797           	3970576.890       	3700914.420       
P-797           	3970629.960       	3700875.640       
P-798           	3945374.350       	3705637.610       
P-798           	3944530.590       	3705753.240       
P-798           	3944071.230       	3705809.490       
P-798           	3943539.980       	3705809.490       
P-798           	3942668.100       	3705737.620       
P-798           	3942130.600       	3705693.870       
P-798           	3941589.960       	3705718.870       
P-798           	3940721.220       	3705781.360       
P-798           	3939880.600       	3705818.840       
P-798           	3939155.600       	3705859.500       
P-8             	3961677.410       	3697625.310       
P-8             	3961417.840       	3697428.180       
P-80            	3961183.020       	3696366.370       
P-80            	3961458.070       	3696595.320       
P-80            	3961443.740       	3696618.630       
P-80            	3961424.420       	3696650.080       
P-80            	3961641.690       	3696834.900       
P-80            	3961801.510       	3696962.430       
P-80            	3961864.410       	3697012.520       
P-80            	3961908.940       	3697047.970       
P-80            	3961950.530       	3697081.080       
P-80            	3961977.480       	3697102.550       
P-80            	3962133.290       	3697223.880       
P-80            	3962322.690       	3697377.980       
P-800           	3971591.640       	3704614.810       
P-801           	3969783.070       	3701472.730       
P-801           	3970118.110       	3701231.820       
P-802           	3972593.600       	3704211.360       
P-802           	3972581.690       	3704196.080       
P-802           	3972460.900       	3704041.110       
P-803           	3970173.290       	3701192.540       
P-803           	3970691.400       	3700823.640       
P-803           	3970967.800       	3700628.350       
P-803           	3971059.190       	3700607.080       
P-805           	3971639.610       	3703794.190       
P-805           	3971961.660       	3703549.500       
P-805           	3972017.380       	3703628.040       
P-805           	3972032.760       	3703649.710       
P-806           	3968077.860       	3700652.870       
P-807           	3972805.730       	3704825.670       
P-808           	3970253.380       	3701360.110       
P-808           	3970165.640       	3701239.040       
P-810           	3968239.210       	3700013.790       
P-810           	3968252.320       	3699970.870       
P-810           	3968323.960       	3699694.910       
P-810           	3968314.940       	3699692.340       
P-811           	3970184.370       	3701195.070       
P-811           	3970212.810       	3701176.080       
P-811           	3970377.790       	3701055.660       
P-811           	3970400.420       	3701040.430       
P-811           	3970534.170       	3700945.640       
P-812           	3972332.150       	3704021.520       
P-812           	3972337.030       	3704018.840       
P-812           	3972361.470       	3704025.370       
P-812           	3972404.220       	3703991.860       
P-815           	3960232.930       	3704352.410       
P-815           	3960242.930       	3704589.710       
P-815           	3960190.090       	3704593.230       
P-815           	3959793.280       	3704619.690       
P-815           	3959016.390       	3704674.640       
P-815           	3958520.740       	3704712.190       
P-816           	3971522.730       	3706891.780       
P-816           	3971396.840       	3706753.400       
P-816           	3971256.670       	3706543.260       
P-816           	3971270.450       	3706409.740       
P-816           	3971273.380       	3706381.290       
P-816           	3971269.940       	3706372.770       
P-816           	3971263.740       	3706371.720       
P-816           	3971185.310       	3706363.930       
P-816           	3971186.660       	3706351.040       
P-816           	3971202.480       	3706201.080       
P-816           	3971207.110       	3706157.140       
P-816           	3971210.380       	3706126.200       
P-816           	3971214.490       	3706087.190       
P-816           	3971418.770       	3706088.710       
P-816           	3971501.560       	3706089.330       
P-817           	3967196.720       	3710362.210       
P-817           	3967043.130       	3710370.030       
P-818           	3962052.970       	3700467.160       
P-818           	3962054.260       	3700459.710       
P-818           	3962076.200       	3700329.760       
P-818           	3962080.380       	3700303.540       
P-818           	3962136.970       	3700016.840       
P-818           	3962204.200       	3699665.210       
P-819           	3963143.950       	3694550.640       
P-819           	3963134.150       	3694395.290       
P-819           	3963144.130       	3694306.620       
P-82            	3960700.130       	3698752.990       
P-820           	3972228.000       	3706688.180       
P-820           	3972240.210       	3706703.900       
P-821           	3963412.500       	3693201.250       
P-822           	3955744.780       	3690223.920       
P-822           	3955671.620       	3690157.700       
P-822           	3955574.030       	3690098.470       
P-822           	3955521.000       	3690019.510       
P-822           	3955514.800       	3689885.900       
P-822           	3955455.550       	3689725.600       
P-822           	3955486.810       	3689561.340       
P-824           	3962828.740       	3697797.780       
P-824           	3962876.180       	3697687.760       
P-824           	3962917.310       	3697536.880       
P-825           	3958388.150       	3694210.280       
P-825           	3958464.040       	3694092.550       
P-826           	3957692.480       	3693699.320       
P-826           	3957632.820       	3693637.490       
P-826           	3957530.780       	3693527.210       
P-826           	3957522.110       	3693517.840       
P-827           	3962071.350       	3696775.060       
P-827           	3962043.920       	3696811.350       
P-827           	3962003.070       	3696865.380       
P-828           	3956578.560       	3692881.170       
P-828           	3956505.600       	3692993.930       
P-829           	3962283.160       	3697071.110       
P-83            	3965362.020       	3703555.640       
P-830           	3960851.830       	3696019.820       
P-831           	3963213.400       	3698083.390       
P-831           	3963363.400       	3697864.520       
P-832           	3963478.710       	3697949.220       
P-833           	3962038.330       	3700487.750       
P-834           	3962803.940       	3697821.720       
P-834           	3962789.780       	3697853.280       
P-834           	3962713.920       	3698011.520       
P-837           	3962979.240       	3698358.320       
P-837           	3963055.120       	3698253.890       
P-837           	3963172.510       	3698098.330       
P-838           	3963175.190       	3698071.170       
P-839           	3963136.600       	3698068.360       
P-839           	3963125.590       	3698060.860       
P-839           	3962991.460       	3697962.800       
P-839           	3962829.740       	3697833.780       
P-839           	3962813.120       	3697822.820       
P-84            	3965000.360       	3703110.480       
P-84            	3965000.140       	3703104.120       
P-84            	3964991.250       	3703036.700       
P-84            	3964982.350       	3703021.610       
P-840           	3963159.020       	3698069.980       
P-841           	3963292.750       	3698194.360       
P-841           	3963276.950       	3698180.950       
P-841           	3963193.580       	3698110.190       
P-842           	3964179.210       	3698855.570       
P-843           	3965340.170       	3686488.500       
P-845           	3967529.900       	3707579.210       
P-845           	3967489.630       	3707732.120       
P-845           	3967421.980       	3707913.810       
P-845           	3967360.910       	3708062.650       
P-846           	3968703.110       	3704787.300       
P-847           	3968714.360       	3704777.490       
P-848           	3964982.330       	3703506.180       
P-848           	3964986.580       	3703560.460       
P-848           	3965016.610       	3703590.310       
P-848           	3965018.510       	3703629.830       
P-848           	3965027.790       	3703823.710       
P-848           	3965037.470       	3703838.770       
P-848           	3965046.310       	3703852.490       
P-848           	3965069.090       	3704037.940       
P-848           	3965074.090       	3704081.360       
P-848           	3965074.490       	3704084.810       
P-849           	3972902.650       	3707197.760       
P-849           	3973043.280       	3707372.750       
P-849           	3973255.780       	3707635.250       
P-849           	3973624.520       	3708100.880       
P-849           	3973899.520       	3708429.000       
P-849           	3974046.390       	3708632.130       
P-849           	3974452.660       	3709132.130       
P-849           	3974383.900       	3709172.750       
P-849           	3974549.530       	3709375.880       
P-849           	3974883.900       	3709800.880       
P-849           	3975146.400       	3710132.130       
P-849           	3975299.530       	3710335.260       
P-849           	3975552.660       	3710607.130       
P-849           	3976243.270       	3711488.390       
P-849           	3976690.170       	3712041.510       
P-849           	3977187.040       	3712669.640       
P-849           	3978171.400       	3713925.890       
P-849           	3978702.650       	3714588.380       
P-849           	3979283.890       	3715244.640       
P-849           	3979746.410       	3715747.760       
P-849           	3979880.970       	3715895.060       
P-849           	3980028.560       	3716046.490       
P-849           	3980136.150       	3716171.190       
P-85            	3962536.040       	3701059.050       
P-850           	3972570.260       	3707142.550       
P-851           	3971500.130       	3700283.870       
P-852           	3971499.630       	3700284.850       
P-853           	3968281.610       	3702301.080       
P-853           	3968532.410       	3702170.870       
P-854           	3971500.950       	3700285.340       
P-855           	3963334.040       	3698206.180       
P-857           	3963681.270       	3696252.470       
P-858           	3970463.350       	3704660.230       
P-86            	3959942.590       	3693426.030       
P-86            	3959943.770       	3693433.860       
P-86            	3959966.250       	3693557.540       
P-860           	3967491.230       	3708142.280       
P-860           	3967847.500       	3708253.610       
P-860           	3968213.370       	3708324.620       
P-863           	3956875.490       	3691449.640       
P-863           	3956887.740       	3691307.640       
P-863           	3956845.930       	3691175.230       
P-864           	3964059.340       	3695763.120       
P-864           	3964293.490       	3695805.170       
P-864           	3964346.870       	3695691.540       
P-864           	3964343.410       	3695681.440       
P-865           	3982557.510       	3701875.180       
P-865           	3982726.250       	3701315.810       
P-865           	3982857.510       	3700850.200       
P-865           	3982945.000       	3700540.810       
P-865           	3982988.760       	3700506.440       
P-865           	3983091.880       	3700187.690       
P-865           	3983291.890       	3699503.310       
P-865           	3983426.270       	3699037.700       
P-865           	3983526.260       	3698693.940       
P-865           	3983732.510       	3697987.690       
P-865           	3983807.510       	3697737.710       
P-865           	3984035.640       	3697506.440       
P-865           	3984235.640       	3697378.320       
P-865           	3984579.380       	3697268.950       
P-865           	3985388.780       	3697031.450       
P-865           	3985682.520       	3696934.560       
P-865           	3986688.770       	3696625.190       
P-865           	3987635.630       	3696350.180       
P-865           	3988360.630       	3696137.690       
P-866           	3955549.330       	3689140.770       
P-867           	3968644.980       	3702121.430       
P-867           	3968702.810       	3702095.610       
P-867           	3968747.370       	3702077.950       
P-868           	3966025.540       	3703582.910       
P-868           	3966045.720       	3703405.430       
P-87            	3968618.840       	3703010.890       
P-87            	3968748.720       	3702913.680       
P-87            	3968865.080       	3702824.060       
P-87            	3968949.910       	3702752.910       
P-87            	3969011.900       	3702713.720       
P-87            	3969244.870       	3702577.190       
P-870           	3955852.430       	3689517.980       
P-870           	3955917.230       	3689487.380       
P-870           	3955973.030       	3689382.970       
P-870           	3956012.890       	3689231.630       
P-870           	3956050.440       	3689017.550       
P-870           	3956064.970       	3688919.470       
P-870           	3956045.040       	3688878.950       
P-870           	3956001.170       	3688789.750       
P-870           	3955904.630       	3688730.240       
P-871           	3959545.130       	3693057.800       
P-871           	3959529.330       	3692937.760       
P-871           	3959467.940       	3692603.950       
P-872           	3955647.680       	3688446.920       
P-872           	3955627.550       	3688169.470       
P-874           	3966087.070       	3703090.560       
P-875           	3960997.190       	3693574.850       
P-875           	3961087.550       	3693592.050       
P-875           	3961320.760       	3693574.840       
P-875           	3961656.350       	3693537.290       
P-875           	3961722.700       	3693522.490       
P-875           	3961742.760       	3693517.930       
P-876           	3972228.310       	3706666.650       
P-876           	3972441.960       	3706573.450       
P-88            	3960665.440       	3698748.070       
P-88            	3960656.820       	3698738.360       
P-88            	3960646.820       	3698698.230       
P-88            	3960616.100       	3698288.710       
P-88            	3960605.230       	3698279.780       
P-88            	3960571.650       	3698252.200       
P-885           	3963622.570       	3692809.460       
P-885           	3963565.130       	3692944.760       
P-885           	3963501.520       	3693098.520       
P-885           	3963457.050       	3693079.910       
P-886           	3988823.130       	3696187.690       
P-886           	3988951.250       	3696115.820       
P-886           	3989116.880       	3695931.440       
P-886           	3989210.640       	3695765.810       
P-886           	3989270.010       	3695550.180       
P-886           	3989298.140       	3695334.570       
P-886           	3989320.010       	3695075.180       
P-886           	3989338.760       	3694875.190       
P-886           	3989435.630       	3694706.440       
P-886           	3989566.880       	3694618.940       
P-886           	3989857.530       	3694547.060       
P-886           	3990020.010       	3694478.310       
P-886           	3990154.380       	3694372.070       
P-886           	3990363.760       	3694215.810       
P-886           	3990582.510       	3694053.310       
P-886           	3990898.130       	3693906.440       
P-886           	3991301.260       	3693700.190       
P-886           	3992201.270       	3693284.560       
P-886           	3992410.630       	3693181.440       
P-886           	3992476.250       	3693131.440       
P-886           	3992510.640       	3693047.060       
P-886           	3992657.520       	3692528.310       
P-886           	3992848.130       	3691878.320       
P-886           	3992966.890       	3691572.070       
P-886           	3993038.760       	3691397.070       
P-886           	3993163.770       	3691203.310       
P-886           	3993460.640       	3690843.930       
P-886           	3993710.640       	3690540.810       
P-886           	3994004.390       	3690181.460       
P-886           	3994129.380       	3689934.560       
P-886           	3994235.640       	3689628.320       
P-886           	3994335.640       	3689328.320       
P-886           	3994401.260       	3689134.570       
P-886           	3994513.760       	3688743.950       
P-886           	3994566.890       	3688625.190       
P-886           	3994776.260       	3688468.940       
P-887           	3972205.550       	3706679.170       
P-887           	3972187.230       	3706690.300       
P-888           	3969278.330       	3693926.330       
P-888           	3969618.950       	3693357.570       
P-888           	3969890.800       	3692916.940       
P-888           	3970081.450       	3692635.690       
P-888           	3970243.940       	3692448.200       
P-888           	3970409.570       	3692154.440       
P-888           	3970681.440       	3691663.830       
P-888           	3971225.190       	3690716.950       
P-888           	3971715.820       	3689835.710       
P-888           	3972387.700       	3688651.340       
P-888           	3972650.200       	3688201.330       
P-888           	3972797.080       	3688023.200       
P-888           	3973059.580       	3687710.700       
P-888           	3973556.440       	3687060.700       
P-888           	3973775.190       	3686745.070       
P-89            	3957219.960       	3690787.990       
P-89            	3957277.430       	3690790.340       
P-890           	3972203.300       	3706712.820       
P-891           	3974231.440       	3685970.060       
P-891           	3974387.700       	3685651.330       
P-891           	3974668.950       	3685104.420       
P-891           	3975140.820       	3684170.080       
P-891           	3975259.570       	3683970.070       
P-891           	3975397.070       	3683735.680       
P-891           	3975534.580       	3683510.700       
P-891           	3975587.700       	3683538.820       
P-891           	3975828.310       	3683129.440       
P-891           	3976262.690       	3682416.950       
P-891           	3976734.570       	3681632.580       
P-891           	3977137.700       	3680973.200       
P-891           	3977365.810       	3680598.190       
P-891           	3977518.940       	3680345.060       
P-891           	3977590.810       	3680201.310       
P-891           	3977631.450       	3680032.570       
P-891           	3977693.950       	3679826.320       
P-891           	3977790.830       	3679635.690       
P-891           	3977903.570       	3679479.210       
P-891           	3977939.220       	3679449.770       
P-892           	3987168.970       	3686115.820       
P-892           	3987059.590       	3686022.060       
P-892           	3986925.220       	3685872.070       
P-892           	3986772.090       	3685656.440       
P-892           	3986556.480       	3685378.320       
P-892           	3986372.100       	3685159.560       
P-892           	3986178.350       	3684934.560       
P-892           	3986015.840       	3684737.700       
P-892           	3985884.600       	3684622.070       
P-892           	3985572.090       	3684400.190       
P-892           	3985312.710       	3684237.700       
P-892           	3985156.470       	3684137.690       
P-892           	3984828.340       	3684003.310       
P-892           	3984590.850       	3683909.570       
P-892           	3984034.590       	3683693.940       
P-892           	3983375.210       	3683403.310       
P-892           	3982784.590       	3683165.810       
P-892           	3982237.720       	3682937.690       
P-892           	3981790.840       	3682740.810       
P-892           	3981478.320       	3682593.940       
P-892           	3980981.460       	3682362.690       
P-892           	3980878.350       	3682290.820       
P-892           	3980753.340       	3682203.310       
P-892           	3980275.230       	3681781.430       
P-892           	3980043.960       	3681547.070       
P-892           	3979897.100       	3681422.060       
P-892           	3979612.710       	3681168.940       
P-892           	3979453.340       	3681034.570       
P-892           	3979134.600       	3680681.440       
P-892           	3978706.470       	3680222.060       
P-892           	3978362.710       	3679862.690       
P-892           	3978027.700       	3679507.370       
P-892           	3977995.240       	3679466.780       
P-893           	3942216.000       	3710924.770       
P-893           	3942994.140       	3711909.150       
P-893           	3943831.630       	3712977.890       
P-893           	3944516.010       	3713846.640       
P-893           	3944672.270       	3714081.010       
P-893           	3944716.000       	3714193.520       
P-893           	3944834.760       	3714556.020       
P-894           	3936727.470       	3709553.240       
P-894           	3936061.840       	3710928.230       
P-894           	3935921.220       	3711187.620       
P-894           	3935864.960       	3711162.620       
P-894           	3935732.310       	3711429.910       
P-894           	3935655.600       	3711584.490       
P-894           	3935605.600       	3711662.620       
P-894           	3935411.850       	3711796.990       
P-894           	3935096.210       	3712059.490       
P-894           	3934839.960       	3712243.870       
P-894           	3934752.470       	3712290.740       
P-894           	3934408.720       	3712431.370       
P-894           	3933302.460       	3712831.360       
P-894           	3933043.090       	3712937.620       
P-894           	3932958.720       	3712978.240       
P-894           	3932933.720       	3713037.610       
P-894           	3932943.090       	3713309.490       
P-894           	3932958.720       	3713943.880       
P-894           	3932955.590       	3714243.870       
P-894           	3932930.590       	3714300.110       
P-894           	3932427.450       	3714718.850       
P-9             	3962439.070       	3696812.720       
P-90            	3958282.650       	3697231.570       
P-903           	3968852.480       	3708273.230       
P-903           	3968864.680       	3708269.730       
P-903           	3968876.190       	3708290.160       
P-903           	3968933.010       	3708390.950       
P-904           	3965657.450       	3687985.050       
P-906           	3967977.110       	3699306.080       
P-906           	3967977.110       	3699310.480       
P-908           	3957781.900       	3690841.480       
P-908           	3958184.030       	3690875.540       
P-908           	3958306.440       	3690885.990       
P-908           	3958417.480       	3690882.510       
P-908           	3958664.190       	3690819.500       
P-909           	3971501.410       	3700284.450       
P-91            	3966579.260       	3701934.850       
P-92            	3971285.510       	3703469.360       
P-92            	3971209.010       	3703497.620       
P-93            	3972795.890       	3704401.530       
P-93            	3972746.120       	3704320.590       
P-93            	3972689.220       	3704151.250       
P-93            	3972667.800       	3704027.400       
P-93            	3972548.230       	3703854.520       
P-93            	3972362.350       	3703793.700       
P-93            	3972175.120       	3703554.380       
P-94            	3963697.860       	3698478.950       
P-95            	3964831.200       	3705340.070       
P-95            	3964833.390       	3705339.500       
P-96            	3965016.010       	3703124.090       
P-96            	3965142.530       	3703132.150       
P-96            	3965152.270       	3703146.440       
P-96            	3965319.220       	3703163.050       
P-99            	3965025.160       	3702999.080       
P-99            	3965041.020       	3702989.160       

[LABELS]
;X-Coord             Y-Coord             Label & Anchor Node

[BACKDROP]
  DIMENSIONS  	3923762.020       	3676962.150       	4006077.240       	3729890.850       
 UNITS          	None
 FILE           	
 OFFSET         	0.00            	0.00            

[END]
