[TITLE]


[JUNCTIONS]
;ID              	Elev        	Demand      	Pattern         
 J-1             	910.9295    	5.216       	11              	;
 J-10            	946.8868    	2.978       	11              	;
 J-100           	873.7346    	1.794       	11              	;
 J-101           	913.5342    	2.215       	11              	;
 J-102           	1077.363    	1.364       	11              	;
 J-103           	1070.743    	3.001       	11              	;
 J-104           	911.5759    	4.087       	11              	;
 J-105           	949.6541    	0.962       	11              	;
 J-106           	844.8198    	0.145       	11              	;
 J-107           	911.53      	0.457       	11              	;
 J-108           	878.8645    	6.244       	11              	;
 J-109           	884.2694    	5.242       	11              	;
 J-11            	1284.016    	1.279       	11              	;
 J-110           	894.705     	2.421       	11              	;
 J-111           	793.0397    	2.917       	11              	;
 J-113           	866.5101    	0.939       	11              	;
 J-114           	969.5087    	0           	                	;
 J-115           	868.9144    	0.371       	11              	;
 J-116           	845.4252    	0.089       	11              	;
 J-117           	869.8613    	0.147       	11              	;
 J-118           	864.5       	0           	                	;
 J-119           	831.8525    	1.804       	11              	;
 J-12            	869.4212    	2.757       	11              	;
 J-120           	855.4727    	2.286       	11              	;
 J-121           	865.048     	0.749       	11              	;
 J-122           	889.9908    	2.215       	11              	;
 J-123           	905.8547    	0.803       	11              	;
 J-124           	941.5821    	3.403       	11              	;
 J-125           	858.1315    	1.52        	11              	;
 J-126           	889.3646    	2.034       	11              	;
 J-127           	867.1315    	1.906       	11              	;
 J-128           	842.6745    	0.124       	11              	;
 J-129           	911.0619    	0.271       	11              	;
 J-13            	922.5289    	1.096       	11              	;
 J-130           	856.7444    	1.247       	11              	;
 J-131           	928.6189    	0.541       	11              	;
 J-132           	890.2722    	0.559       	11              	;
 J-133           	871.437     	1.557       	11              	;
 J-134           	872.5357    	5.255       	11              	;
 J-135           	862.8616    	1.263       	11              	;
 J-136           	899.9942    	2.59        	11              	;
 J-137           	897.2423    	3.803       	11              	;
 J-138           	896.0107    	0.643       	11              	;
 J-139           	886.1169    	0.795       	11              	;
 J-14            	975.7794    	0.938       	11              	;
 J-140           	898.5971    	2.791       	11              	;
 J-141           	899.8969    	0.501       	11              	;
 J-142           	895.0644    	1.665       	11              	;
 J-143           	884.2805    	4.014       	11              	;
 J-144           	837.9       	0.304       	11              	;
 J-145           	1475.718    	2.139       	11              	;
 J-146           	850.5697    	0.4         	11              	;
 J-147           	808.6201    	1.972       	11              	;
 J-148           	829.0306    	0.869       	11              	;
 J-149           	850.6763    	2.994       	11              	;
 J-15            	873.707     	1.41        	11              	;
 J-150           	873.834     	3.706       	11              	;
 J-151           	902.9547    	0.811       	11              	;
 J-152           	1010.813    	1.628       	11              	;
 J-153           	1009.462    	2.737       	11              	;
 J-154           	1037.944    	5.293       	11              	;
 J-155           	857.8021    	0.62        	11              	;
 J-156           	858.4855    	0.354       	11              	;
 J-157           	888.071     	0.25        	11              	;
 J-158           	905.4678    	1.066       	11              	;
 J-159           	881.181     	0.175       	11              	;
 J-16            	873.8046    	1.649       	11              	;
 J-160           	904.007     	0.365       	11              	;
 J-161           	1204.991    	0.916       	11              	;
 J-162           	816.3106    	0           	                	;
 J-163           	851.4582    	4.332       	11              	;
 J-164           	953.9335    	2.933       	11              	;
 J-165           	1011.838    	1.321       	11              	;
 J-166           	1161.921    	1.279       	11              	;
 J-167           	881.122     	2.665       	11              	;
 J-168           	929.3681    	1.42        	11              	;
 J-169           	817.9205    	8.016       	11              	;
 J-17            	821.316     	0.443       	11              	;
 J-170           	920.4334    	4.818       	11              	;
 J-171           	907.8921    	1.54        	11              	;
 J-173           	986.5501    	5.881       	11              	;
 J-174           	864.2231    	1.358       	11              	;
 J-175           	977.2876    	0.461       	11              	;
 J-176           	865.7123    	2.688       	11              	;
 J-177           	938.1194    	1.957       	11              	;
 J-178           	1028.286    	6.217       	11              	;
 J-179           	861.959     	0.522       	11              	;
 J-18            	868.2047    	1.864       	11              	;
 J-180           	857.1237    	1.018       	11              	;
 J-181           	858.6425    	1.353       	11              	;
 J-182           	879.0841    	0.691       	11              	;
 J-183           	897.244     	0           	                	;
 J-184           	951.3792    	1.402       	11              	;
 J-185           	858.0267    	1.87        	11              	;
 J-186           	863.4764    	3.146       	11              	;
 J-187           	916.9565    	0.666       	11              	;
 J-188           	865.8304    	0.74        	11              	;
 J-189           	898.5654    	5.911       	11              	;
 J-19            	859.6194    	3.238       	11              	;
 J-190           	1015.941    	2.746       	11              	;
 J-191           	864.9523    	0           	                	;
 J-192           	872.2225    	1.751       	11              	;
 J-193           	853.5125    	0.738       	11              	;
 J-194           	859.9335    	0.515       	11              	;
 J-195           	858.1615    	1.524       	11              	;
 J-196           	915.3968    	0.344       	11              	;
 J-197           	907.5625    	0.529       	11              	;
 J-198           	1298.526    	0           	                	;
 J-199           	897.2482    	0.516       	11              	;
 J-2             	1035.814    	3.78        	11              	;
 J-20            	904.7936    	0.961       	11              	;
 J-200           	882.8318    	0.376       	11              	;
 J-201           	912.1286    	4.249       	11              	;
 J-202           	975.9441    	1.057       	11              	;
 J-203           	1020.614    	2.286       	11              	;
 J-204           	1020.614    	5.436       	11              	;
 J-205           	929.8282    	2.219       	11              	;
 J-206           	810.9816    	0.796       	11              	;
 J-207           	810.231     	4.055       	11              	;
 J-208           	797.0452    	5.296       	11              	;
 J-209           	833.761     	2.624       	11              	;
 J-21            	872.83      	2.685       	11              	;
 J-210           	881.0952    	0.613       	11              	;
 J-211           	870.8761    	1.588       	11              	;
 J-212           	915.023     	0.213       	11              	;
 J-213           	916.5871    	0.255       	11              	;
 J-214           	855.1732    	0.689       	11              	;
 J-215           	893.2797    	0           	                	;
 J-216           	899.2355    	0.059       	11              	;
 J-217           	940.975     	0.053       	11              	;
 J-218           	875.88      	0.376       	11              	;
 J-219           	837.5442    	2.461       	11              	;
 J-22            	919.4841    	4.585       	11              	;
 J-220           	879.9132    	4.198       	11              	;
 J-221           	1085.514    	3.202       	11              	;
 J-222           	873.9936    	2.001       	11              	;
 J-223           	860.3589    	0.869       	11              	;
 J-224           	875.0416    	0.915       	11              	;
 J-226           	869.5549    	0.369       	11              	;
 J-227           	899.2083    	0.725       	11              	;
 J-228           	1020.684    	0.878       	11              	;
 J-229           	932.679     	0.531       	11              	;
 J-23            	768.2193    	8.792       	11              	;
 J-230           	1277.227    	3.228       	11              	;
 J-231           	1136.799    	4.958       	11              	;
 J-232           	1203.467    	1.322       	11              	;
 J-233           	908.5156    	2.348       	11              	;
 J-234           	976.4861    	2.275       	11              	;
 J-235           	1069.859    	0.795       	11              	;
 J-236           	918.6333    	8.321       	11              	;
 J-237           	915.1697    	0.203       	11              	;
 J-239           	896.6388    	0.054       	11              	;
 J-24            	825.5844    	0.319       	11              	;
 J-240           	891.7151    	0.521       	11              	;
 J-241           	900.2406    	9.623       	11              	;
 J-242           	1130.982    	9.077       	11              	;
 J-243           	872.9894    	0.716       	11              	;
 J-244           	933.1938    	1.53        	11              	;
 J-245           	910.5057    	1.824       	11              	;
 J-246           	855.0912    	0.34        	11              	;
 J-247           	851.2573    	0.855       	11              	;
 J-248           	895.2034    	0.263       	11              	;
 J-249           	847.9325    	0.474       	11              	;
 J-25            	871.3768    	1.501       	11              	;
 J-250           	854.3499    	0.167       	11              	;
 J-251           	954.1266    	3.841       	11              	;
 J-252           	1060.42     	2.062       	11              	;
 J-253           	896.6505    	0.123       	11              	;
 J-254           	865.8737    	1.921       	11              	;
 J-255           	902.4641    	1.646       	11              	;
 J-256           	889.959     	1.049       	11              	;
 J-257           	915.0623    	1.69        	11              	;
 J-258           	882.0197    	0.107       	11              	;
 J-259           	857.5723    	0.286       	11              	;
 J-26            	802.1866    	2.163       	11              	;
 J-260           	780.7627    	1.813       	11              	;
 J-261           	731.7192    	1.303       	11              	;
 J-262           	801.576     	1.769       	11              	;
 J-263           	1503.891    	1.419       	11              	;
 J-264           	1394.023    	5.456       	11              	;
 J-265           	1486.987    	1.346       	11              	;
 J-266           	1652.198    	1.045       	11              	;
 J-267           	796.8025    	2.514       	11              	;
 J-268           	933.6047    	5.442       	11              	;
 J-269           	792.9393    	1.781       	11              	;
 J-27            	884.9385    	0.429       	11              	;
 J-270           	928.4474    	0.17        	11              	;
 J-271           	1041.089    	0.793       	11              	;
 J-272           	955.5141    	3.296       	11              	;
 J-273           	864.853     	0.729       	11              	;
 J-274           	906.9274    	0.555       	11              	;
 J-275           	857.1678    	0.473       	11              	;
 J-276           	853.0327    	0.767       	11              	;
 J-277           	900.4609    	0.856       	11              	;
 J-278           	959.5438    	0.708       	11              	;
 J-279           	943.0487    	1.462       	11              	;
 J-28            	857.9258    	1.888       	11              	;
 J-280           	939.7632    	4.046       	11              	;
 J-281           	1281.842    	1.609       	11              	;
 J-282           	907.3055    	3.74        	11              	;
 J-283           	917.2003    	3.508       	11              	;
 J-284           	821.1119    	4.406       	11              	;
 J-286           	1009.608    	0.897       	11              	;
 J-287           	1004.956    	0.377       	11              	;
 J-288           	996.0931    	0.667       	11              	;
 J-289           	911.8095    	1.909       	11              	;
 J-29            	845.8478    	1.525       	11              	;
 J-290           	876.6397    	2.159       	11              	;
 J-291           	882.3793    	2.964       	11              	;
 J-292           	865.2385    	0.52        	11              	;
 J-294           	958.9999    	0.036       	11              	;
 J-295           	961.3851    	0.173       	11              	;
 J-296           	888.8898    	5.631       	11              	;
 J-297           	1209.545    	0.33        	11              	;
 J-298           	1124.182    	0.486       	11              	;
 J-299           	811.7334    	6.832       	11              	;
 J-3             	905.9592    	2.546       	11              	;
 J-30            	892.6323    	6.511       	11              	;
 J-300           	879.9893    	1.801       	11              	;
 J-301           	807.3615    	1.424       	11              	;
 J-302           	859.6786    	0.87        	11              	;
 J-303           	854.8957    	5.518       	11              	;
 J-304           	891.0228    	0.164       	11              	;
 J-305           	891.0461    	0.469       	11              	;
 J-306           	957.9426    	1.05        	11              	;
 J-307           	867.726     	2.845       	11              	;
 J-308           	888.3326    	0.32        	11              	;
 J-309           	1007.329    	0.295       	11              	;
 J-31            	857.2095    	7.831       	11              	;
 J-310           	969.0999    	1.129       	11              	;
 J-311           	832.066     	3.565       	11              	;
 J-313           	877.1818    	0.196       	11              	;
 J-314           	916.7357    	0.232       	11              	;
 J-315           	882.6295    	1.484       	11              	;
 J-316           	863.3277    	0.591       	11              	;
 J-317           	862.3051    	1.097       	11              	;
 J-318           	894.0441    	6.278       	11              	;
 J-32            	855.0686    	0.761       	11              	;
 J-320           	844.4197    	1.309       	11              	;
 J-321           	1057.044    	0.151       	11              	;
 J-322           	1205.271    	0.796       	11              	;
 J-324           	826.4572    	2.084       	11              	;
 J-325           	916.9662    	1.006       	11              	;
 J-326           	926.6071    	2.372       	11              	;
 J-327           	1104.847    	2.69        	11              	;
 J-328           	1263.674    	1.53        	11              	;
 J-33            	993.8724    	2.771       	11              	;
 J-330           	852.6658    	1.167       	11              	;
 J-331           	895.9724    	3.944       	11              	;
 J-332           	1468.462    	2.838       	11              	;
 J-333           	1478.405    	3.101       	11              	;
 J-334           	897.9674    	1.681       	11              	;
 J-335           	910.0288    	3.377       	11              	;
 J-336           	873.205     	2.764       	11              	;
 J-337           	860.3036    	0.529       	11              	;
 J-338           	807.9829    	1.619       	11              	;
 J-339           	853.9338    	0.161       	11              	;
 J-34            	1569.882    	1.917       	11              	;
 J-340           	870.2347    	3.777       	11              	;
 J-341           	874.934     	1.375       	11              	;
 J-342           	943.7942    	0.343       	11              	;
 J-343           	918.5153    	1.185       	11              	;
 J-344           	916.2611    	1.714       	11              	;
 J-345           	787.8898    	2.282       	11              	;
 J-346           	1348.762    	4.35        	11              	;
 J-347           	923.1267    	1.009       	11              	;
 J-348           	875.9151    	0.493       	11              	;
 J-349           	871.4737    	0.397       	11              	;
 J-35            	946.3931    	1.293       	11              	;
 J-350           	966.1048    	0.48        	11              	;
 J-351           	859.9092    	1.605       	11              	;
 J-352           	904.6806    	0.415       	11              	;
 J-353           	888.1711    	0.904       	11              	;
 J-354           	917.8163    	0.746       	11              	;
 J-355           	910.079     	2.367       	11              	;
 J-356           	858.5777    	0.299       	11              	;
 J-357           	918.6333    	8.572       	11              	;
 J-358           	953.0703    	0.856       	11              	;
 J-359           	1009.462    	1.463       	11              	;
 J-36            	869.0413    	9.229       	11              	;
 J-361           	986.5096    	0.923       	11              	;
 J-362           	825.7568    	1.162       	11              	;
 J-363           	908.1333    	0.534       	11              	;
 J-364           	908.2796    	0.143       	11              	;
 J-365           	946.6546    	0.392       	11              	;
 J-366           	959.4054    	0.053       	11              	;
 J-367           	975.3076    	3.851       	11              	;
 J-368           	874.2568    	2.78        	11              	;
 J-369           	934.5998    	1.073       	11              	;
 J-37            	884.9142    	4.489       	11              	;
 J-370           	960.2401    	1.532       	11              	;
 J-371           	1042.229    	0.377       	11              	;
 J-372           	940.2241    	0.105       	11              	;
 J-373           	905.1574    	4.307       	11              	;
 J-374           	915.1223    	0.817       	11              	;
 J-375           	805.4102    	5.107       	11              	;
 J-376           	890.8901    	1.608       	11              	;
 J-377           	890.4012    	2.195       	11              	;
 J-378           	912.557     	0.982       	11              	;
 J-379           	928.5355    	0.201       	11              	;
 J-38            	936.85      	1.759       	11              	;
 J-380           	785.4839    	5.997       	11              	;
 J-381           	956.4138    	1.815       	11              	;
 J-382           	872.472     	0.281       	11              	;
 J-384           	865.5309    	5.3         	11              	;
 J-385           	862.8024    	1.088       	11              	;
 J-386           	916.2935    	2.954       	11              	;
 J-387           	982.2441    	0.22        	11              	;
 J-388           	871.1949    	2.126       	11              	;
 J-389           	934.653     	0.822       	11              	;
 J-39            	877.6287    	2.094       	11              	;
 J-390           	931.7991    	0.339       	11              	;
 J-391           	948.8831    	0.957       	11              	;
 J-392           	939.7407    	2.35        	11              	;
 J-393           	1036.368    	2.699       	11              	;
 J-394           	987.7914    	3.271       	11              	;
 J-395           	1265.977    	3.977       	11              	;
 J-396           	1275.458    	1.218       	11              	;
 J-397           	921.1927    	1.029       	11              	;
 J-399           	889.3684    	1.012       	11              	;
 J-4             	915.4558    	1.702       	11              	;
 J-40            	846.25      	2.195       	11              	;
 J-400           	882.0575    	0.392       	11              	;
 J-401           	856.1255    	0.469       	11              	;
 J-402           	857.9173    	2.141       	11              	;
 J-403           	861.4396    	1.469       	11              	;
 J-404           	886.0495    	1.18        	11              	;
 J-405           	901.3066    	0.37        	11              	;
 J-406           	972.3654    	9.262       	11              	;
 J-407           	911.1252    	0.16        	11              	;
 J-408           	904.5205    	0.386       	11              	;
 J-409           	854.1279    	0.122       	11              	;
 J-41            	876.9189    	0.956       	11              	;
 J-410           	897.6112    	0.186       	11              	;
 J-411           	858.3289    	0.366       	11              	;
 J-412           	876.1429    	0.086       	11              	;
 J-413           	901.1375    	1.222       	11              	;
 J-414           	1302.295    	2.154       	11              	;
 J-415           	1302.295    	1.547       	11              	;
 J-416           	888.0784    	0.323       	11              	;
 J-417           	1046.586    	1.066       	11              	;
 J-418           	1107.643    	1.115       	11              	;
 J-419           	910.4126    	0.076       	11              	;
 J-42            	786.3456    	2.941       	11              	;
 J-421           	871.345     	0.196       	11              	;
 J-422           	869.4531    	0.067       	11              	;
 J-423           	923.6902    	0.09        	11              	;
 J-424           	935.8748    	0.639       	11              	;
 J-425           	1109.446    	3.961       	11              	;
 J-426           	913.4969    	1.849       	11              	;
 J-427           	926.033     	0.156       	11              	;
 J-428           	918.6333    	0.694       	11              	;
 J-429           	898.2898    	5.025       	11              	;
 J-43            	904.52      	0.085       	11              	;
 J-430           	764.7927    	0.174       	11              	;
 J-431           	853.9481    	0.314       	11              	;
 J-432           	874.3638    	1.147       	11              	;
 J-433           	899.0455    	1.071       	11              	;
 J-434           	1150.511    	1.813       	11              	;
 J-435           	829.3761    	0.761       	11              	;
 J-436           	918.4193    	3.17        	11              	;
 J-437           	870.3122    	0.067       	11              	;
 J-438           	792.1823    	2.699       	11              	;
 J-44            	880.94      	0.209       	11              	;
 J-440           	938.7907    	0.912       	11              	;
 J-441           	820.6572    	4.078       	11              	;
 J-442           	832.2682    	3.199       	11              	;
 J-444           	997.1141    	0.982       	11              	;
 J-445           	956.1198    	0.901       	11              	;
 J-446           	948.6992    	1.383       	11              	;
 J-447           	856.5505    	0.08        	11              	;
 J-448           	1068.521    	0.077       	11              	;
 J-449           	1065.774    	0.225       	11              	;
 J-45            	866.54      	0.618       	11              	;
 J-450           	922.4603    	0.176       	11              	;
 J-451           	918.6608    	0.069       	11              	;
 J-452           	820.2157    	4.711       	11              	;
 J-453           	996.5876    	3.932       	11              	;
 J-454           	857.2524    	1.537       	11              	;
 J-455           	820.9841    	0.295       	11              	;
 J-456           	808.5272    	3.838       	11              	;
 J-457           	946.2092    	1.503       	11              	;
 J-458           	1150.511    	1.176       	11              	;
 J-46            	888.8423    	2.28        	11              	;
 J-460           	1065.774    	0.087       	11              	;
 J-461           	915.1122    	3.806       	11              	;
 J-462           	1026.175    	1.632       	11              	;
 J-463           	856.3391    	5.984       	11              	;
 J-464           	877.6062    	6.018       	11              	;
 J-465           	877.6062    	4.691       	11              	;
 J-466           	926.8088    	0.442       	11              	;
 J-467           	870.5936    	0.289       	11              	;
 J-469           	943.2756    	0.065       	11              	;
 J-47            	902.789     	0           	                	;
 J-470           	962.9944    	0.222       	11              	;
 J-472           	938.4179    	1.222       	11              	;
 J-473           	775.8064    	2.748       	11              	;
 J-474           	773.0842    	2.56        	11              	;
 J-476           	858.3407    	0.045       	11              	;
 J-477           	913.7922    	1.427       	11              	;
 J-478           	991.0442    	0.284       	11              	;
 J-479           	953.4218    	0.842       	11              	;
 J-48            	895.3137    	4.868       	11              	;
 J-480           	870.0417    	0.961       	11              	;
 J-481           	884.2433    	1.662       	11              	;
 J-482           	1014.038    	0.485       	11              	;
 J-484           	902.2664    	0.298       	11              	;
 J-485           	1044.903    	1.497       	11              	;
 J-486           	952.0574    	1.095       	11              	;
 J-488           	1025.508    	0.955       	11              	;
 J-49            	872.0357    	0.737       	11              	;
 J-490           	939.3114    	7.817       	11              	;
 J-491           	934.173     	5.903       	11              	;
 J-492           	1075.496    	2.853       	11              	;
 J-493           	1279.734    	0.306       	11              	;
 J-494           	878.4167    	0.526       	11              	;
 J-495           	785.1415    	4.885       	11              	;
 J-496           	948.5295    	3.791       	11              	;
 J-497           	857.3401    	0.269       	11              	;
 J-498           	877.9095    	2.671       	11              	;
 J-499           	921.391     	0.32        	11              	;
 J-5             	888.4332    	0           	                	;
 J-50            	875.6846    	2.084       	11              	;
 J-500           	1019.535    	1.321       	11              	;
 J-501           	777.7853    	3.273       	11              	;
 J-502           	836.3597    	7.262       	11              	;
 J-503           	895.2371    	3.386       	11              	;
 J-504           	956.7793    	3.669       	11              	;
 J-505           	1009.101    	0.553       	11              	;
 J-506           	986.8508    	2.042       	11              	;
 J-507           	1009.521    	0.546       	11              	;
 J-508           	929.9955    	2.536       	11              	;
 J-509           	966.9644    	1.092       	11              	;
 J-51            	799.6152    	0.719       	11              	;
 J-510           	998.3074    	1.104       	11              	;
 J-511           	1066.228    	1.358       	11              	;
 J-512           	947.1428    	0.36        	11              	;
 J-513           	1009.462    	0.94        	11              	;
 J-514           	876.5627    	2.027       	11              	;
 J-516           	855.1635    	0.267       	11              	;
 J-517           	897.1501    	0.248       	11              	;
 J-518           	960.6916    	0.755       	11              	;
 J-519           	981.1243    	0.543       	11              	;
 J-52            	808.5374    	5.87        	11              	;
 J-520           	959.3722    	1.885       	11              	;
 J-521           	1074.432    	1.069       	11              	;
 J-522           	967.6119    	0.367       	11              	;
 J-523           	964.1064    	0.202       	11              	;
 J-524           	970.805     	0.408       	11              	;
 J-525           	950.1495    	0.079       	11              	;
 J-526           	851.1884    	1.483       	11              	;
 J-527           	861.5182    	0.875       	11              	;
 J-528           	978.6781    	1.065       	11              	;
 J-53            	828.8377    	2.615       	11              	;
 J-530           	1023.878    	2.314       	11              	;
 J-531           	831.8243    	6.133       	11              	;
 J-532           	953.2395    	3.74        	11              	;
 J-533           	913.3972    	0.627       	11              	;
 J-534           	867.7884    	0.694       	11              	;
 J-535           	900.6401    	0.919       	11              	;
 J-536           	947.0266    	10.54       	11              	;
 J-537           	1019.573    	3.765       	11              	;
 J-538           	938.2294    	0.261       	11              	;
 J-539           	996.8821    	0.252       	11              	;
 J-54            	824.3687    	3.792       	11              	;
 J-540           	937.2123    	0.819       	11              	;
 J-542           	921.0335    	0.984       	11              	;
 J-543           	862.2979    	0.029       	11              	;
 J-544           	870.7891    	0.662       	11              	;
 J-545           	852.1924    	0.32        	11              	;
 J-547           	925.2291    	1.251       	11              	;
 J-548           	981.2397    	2.024       	11              	;
 J-55            	875.8926    	1.706       	11              	;
 J-551           	841.1976    	0.329       	11              	;
 J-552           	950.9146    	0.554       	11              	;
 J-554           	1049.871    	0.208       	11              	;
 J-555           	961.0862    	0.221       	11              	;
 J-556           	915.1844    	1.1         	11              	;
 J-557           	839.5115    	3.974       	11              	;
 J-558           	916.9732    	0.178       	11              	;
 J-559           	839.6017    	3.008       	11              	;
 J-56            	896.6143    	2.311       	11              	;
 J-561           	906.6212    	0.737       	11              	;
 J-562           	873.847     	1.06        	11              	;
 J-563           	954.1786    	0.439       	11              	;
 J-564           	892.3596    	0.396       	11              	;
 J-565           	985.6165    	2.469       	11              	;
 J-566           	1010.725    	0.285       	11              	;
 J-568           	831.8088    	5.089       	11              	;
 J-57            	909.3689    	1.083       	11              	;
 J-570           	1060.08     	0.801       	11              	;
 J-571           	918.5227    	0.268       	11              	;
 J-574           	952.7385    	1.294       	11              	;
 J-575           	912.772     	1.744       	11              	;
 J-576           	956.9435    	1.62        	11              	;
 J-577           	808.0842    	0.725       	11              	;
 J-578           	1361.233    	0.584       	11              	;
 J-579           	943.436     	0.568       	11              	;
 J-58            	917.2755    	0.703       	11              	;
 J-580           	884.9526    	0.056       	11              	;
 J-581           	882.7098    	0.164       	11              	;
 J-582           	840.6416    	0.173       	11              	;
 J-583           	874.1187    	2.913       	11              	;
 J-584           	1004.328    	0.249       	11              	;
 J-585           	928.87      	1.496       	11              	;
 J-586           	848.4766    	0.378       	11              	;
 J-587           	808.7008    	0.551       	11              	;
 J-588           	826.2064    	1.219       	11              	;
 J-589           	800.5443    	0.265       	11              	;
 J-59            	926.975     	0.199       	11              	;
 J-591           	1070.676    	2.709       	11              	;
 J-592           	949.321     	2.549       	11              	;
 J-593           	875.7114    	0.074       	11              	;
 J-596           	792.9758    	3.031       	11              	;
 J-597           	883.7429    	0.042       	11              	;
 J-598           	891.1812    	2.383       	11              	;
 J-599           	786.2389    	0.251       	11              	;
 J-6             	825.1       	0.107       	11              	;
 J-60            	848.1243    	8.417       	11              	;
 J-600           	968.3859    	1.833       	11              	;
 J-601           	818.9684    	0.743       	11              	;
 J-602           	860.22      	1.802       	11              	;
 J-603           	925.0679    	0.655       	11              	;
 J-604           	805.2017    	1.103       	11              	;
 J-605           	861.5221    	1.194       	11              	;
 J-606           	991.6851    	0.341       	11              	;
 J-608           	929.35      	0.25        	11              	;
 J-61            	861.8711    	6.338       	11              	;
 J-610           	887.1608    	0.078       	11              	;
 J-612           	847.6828    	0.339       	11              	;
 J-613           	780.4276    	1.897       	11              	;
 J-614           	901.6626    	0.301       	11              	;
 J-615           	791.3043    	2.221       	11              	;
 J-617           	956.8094    	1.233       	11              	;
 J-618           	923.0382    	0.093       	11              	;
 J-619           	966.519     	0.229       	11              	;
 J-62            	917.9244    	0.599       	11              	;
 J-63            	899.1619    	0.726       	11              	;
 J-64            	854.9982    	2.605       	11              	;
 J-65            	857.7144    	3.899       	11              	;
 J-66            	863.3135    	4.152       	11              	;
 J-67            	909.4307    	6.366       	11              	;
 J-68            	857.1318    	0.126       	11              	;
 J-69            	888.9512    	0           	                	;
 J-7             	856.7901    	2.031       	11              	;
 J-70            	877.9022    	5.581       	11              	;
 J-71            	905.5919    	5.133       	11              	;
 J-72            	838.3887    	0.353       	11              	;
 J-73            	874.5153    	0           	                	;
 J-74            	851.9447    	0.371       	11              	;
 J-75            	854.6694    	0.614       	11              	;
 J-76            	849.3143    	2.017       	11              	;
 J-77            	817.7749    	0.102       	11              	;
 J-78            	875.17      	1.695       	11              	;
 J-78a           	835.2324    	1.656       	11              	;
 J-79            	908.4188    	2.563       	11              	;
 J-8             	857.0432    	2.633       	11              	;
 J-80            	1559.724    	0           	                	;
 J-82            	832.6065    	0.176       	11              	;
 J-83            	946.9102    	0.446       	11              	;
 J-84            	944.2125    	1.374       	11              	;
 J-85            	833.71      	0.445       	11              	;
 J-86            	1029.325    	0.576       	11              	;
 J-87            	931.1101    	7.576       	11              	;
 J-88            	838.2935    	0.757       	11              	;
 J-89            	778.658     	3.323       	11              	;
 J-9             	844.6915    	1.615       	11              	;
 J-90            	930.6887    	0.719       	11              	;
 J-91            	917.9359    	0.166       	11              	;
 J-92            	1018.447    	3.611       	11              	;
 J-93            	988.9163    	5.753       	11              	;
 J-94            	948.9678    	1.4         	11              	;
 J-95            	1005.443    	1.271       	11              	;
 J-96            	870.0736    	0.046       	11              	;
 J-97            	907.5375    	1.177       	11              	;
 J-98            	791.3688    	1.168       	11              	;
 J-99            	796.1707    	0.675       	11              	;
 I-Pump-10       	905.5452    	0           	11              	;
 O-Pump-11       	888.006     	0           	11              	;
 O-Pump-12       	892.3919    	0           	11              	;
 I-Pump-13       	788.749     	0           	11              	;
 O-Pump-2        	1021.41     	0           	11              	;
 O-Pump-3        	1114.4      	0           	11              	;
 I-Pump-4        	883.7371    	0           	11              	;
 O-Pump-5        	1010.751    	0           	11              	;
 O-Pump-6        	968.3859    	0           	11              	;
 O-Pump-7        	812.355     	0           	11              	;
 O-Pump-8        	854.2194    	0           	11              	;
 I-Pump-9        	915.023     	0           	11              	;
 I-RV-1          	1067.307    	0           	                	;
 I-RV-10         	1464.844    	0           	                	;
 I-RV-11         	985.0329    	0           	                	;
 I-RV-12         	1195.605    	0           	                	;
 I-RV-13         	980.4224    	0           	                	;
 I-RV-14         	1057.414    	0           	                	;
 I-RV-15         	1061.401    	0           	                	;
 I-RV-16         	1002.014    	0           	                	;
 I-RV-17         	995.6348    	0           	                	;
 I-RV-18         	877.6062    	0           	                	;
 O-RV-19         	946.736     	0           	                	;
 I-RV-2          	1109.057    	0           	                	;
 O-RV-20         	851.0228    	0           	                	;
 I-RV-21         	940.0917    	0           	                	;
 I-RV-22         	1067.943    	0           	                	;
 I-RV-23         	993.3105    	0           	                	;
 I-RV-24         	974.4718    	0           	                	;
 I-RV-25         	989.961     	0           	                	;
 I-RV-26         	1037.749    	0           	                	;
 I-RV-27         	982.9106    	0           	                	;
 I-RV-28         	925.6729    	0           	                	;
 I-RV-3          	1034.935    	0           	                	;
 I-RV-4          	1114.329    	0           	                	;
 O-RV-5          	918.6333    	0           	                	;
 I-RV-6          	1025.949    	0           	                	;
 O-RV-7          	1016.019    	0           	                	;
 I-RV-8          	1265.977    	0           	                	;
 O-RV-9          	1199.068    	0           	                	;
 O-Pump-1        	928.5338    	0           	11              	;
 O-Pump-10       	905.5452    	0           	11              	;
 I-Pump-11       	888.006     	0           	11              	;
 I-Pump-12       	892.3919    	0           	11              	;
 O-Pump-13       	788.749     	0           	11              	;
 I-Pump-2        	1021.41     	0           	11              	;
 I-Pump-3        	1114.4      	0           	11              	;
 O-Pump-4        	883.7371    	0           	11              	;
 I-Pump-5        	1010.751    	0           	11              	;
 I-Pump-6        	968.3859    	0           	11              	;
 I-Pump-7        	812.355     	0           	11              	;
 I-Pump-8        	854.2194    	0           	11              	;
 O-Pump-9        	974         	0           	11              	;
 O-RV-1          	1067.307    	0           	                	;
 O-RV-10         	1464.844    	0           	                	;
 O-RV-11         	985.0329    	0           	                	;
 O-RV-12         	1195.605    	0           	                	;
 O-RV-13         	980.4224    	0           	                	;
 O-RV-14         	1057.414    	0           	                	;
 O-RV-15         	1061.401    	0           	                	;
 O-RV-16         	1002.014    	0           	                	;
 O-RV-17         	995.6348    	0           	                	;
 O-RV-18         	877.6062    	0           	                	;
 I-RV-19         	946.736     	0           	                	;
 O-RV-2          	1109.057    	0           	                	;
 I-RV-20         	851.0228    	0           	                	;
 O-RV-21         	940.0917    	0           	                	;
 O-RV-22         	1067.943    	0           	                	;
 O-RV-23         	993.3105    	0           	                	;
 O-RV-24         	974.4718    	0           	                	;
 O-RV-25         	989.961     	0           	                	;
 O-RV-26         	1037.749    	0           	                	;
 O-RV-27         	982.9106    	0           	                	;
 O-RV-28         	925.6729    	0           	                	;
 O-RV-3          	1034.935    	0           	                	;
 O-RV-4          	1114.329    	0           	                	;
 I-RV-5          	918.6333    	0           	                	;
 O-RV-6          	1025.949    	0           	                	;
 I-RV-7          	1016.019    	0           	                	;
 O-RV-8          	1265.977    	0           	                	;
 I-RV-9          	1199.068    	0           	                	;
 Real_I-Pump-4   	883.7371    	0           	                	;
 Real_I-Pump-8   	854.2194    	0           	                	;
 Real_O-Pump-4   	883.7371    	0           	                	;

[RESERVOIRS]
;ID              	Head        	Pattern         
 R-2             	1214        	                	;

[TANKS]
;ID              	Elevation   	InitLevel   	MinLevel    	MaxLevel    	Diameter    	MinVol      	VolCurve        	Overflow
 T-1             	1247.811    	77.18933    	67.18933    	87.18933    	29.17       	0           	                	;
 T-2             	1075.792    	52.20825    	44.20825    	64.20825    	36.9        	0           	                	;
 T-3             	1027.191    	131.8093    	107.8093    	142.8093    	56.22       	0           	                	;
 T-4             	947.9733    	124.0267    	117.0267    	137.0267    	29.17       	0           	                	;
 T-5             	1037.383    	127.6171    	117.6171    	142.6171    	30.32       	0           	                	;
 T-6             	1176.31     	30.68994    	15.68994    	38.68994    	60.83       	0           	                	;
 T-7             	1315.102    	45.89771    	14.89771    	54.89771    	45.43       	0           	                	;
 T-8             	1661.353    	56.64709    	18.64709    	59.64709    	20.37       	0           	                	;

[PIPES]
;ID              	Node1           	Node2           	Length      	Diameter    	Roughness   	MinorLoss   	Status
 P-1             	J-1             	I-RV-25         	4504.862712 	6           	150         	0           	Open  	;
 P-10            	J-18            	J-37            	637.1699049 	6           	140         	0           	Open  	;
 P-100           	J-159           	J-160           	541.9148719 	6           	69.091      	0           	Open  	;
 P-101           	J-161           	T-1             	190.097358  	6           	140         	0           	Open  	;
 P-102           	J-163           	J-164           	3960.01699  	6           	122.8135    	0           	Open  	;
 P-103           	J-165           	I-RV-4          	2419.375165 	6           	150         	0           	Open  	;
 P-104           	J-167           	J-168           	2659.409192 	6           	150         	0           	Open  	;
 P-105           	J-169           	J-53            	194.7267345 	6           	150         	0           	Open  	;
 P-106           	J-170           	J-171           	2883.640526 	6           	131.3043    	0           	Open  	;
 P-107           	J-173           	J-6             	5409.243107 	6           	150         	0           	Open  	;
 P-108           	J-174           	J-175           	1150.618993 	6           	140         	0           	Open  	;
 P-109           	J-176           	J-177           	3411.362193 	6           	122.8135    	0           	Open  	;
 P-11            	J-20            	T-3             	1887.0321   	6           	140         	0           	Open  	;
 P-110           	J-103           	J-178           	2111.877464 	6           	140         	0           	Open  	;
 P-111           	J-179           	J-180           	1302.767342 	6           	59.091      	0           	Open  	;
 P-112           	J-181           	J-182           	1294.825229 	6           	122.8135    	0           	Open  	;
 P-113           	J-184           	J-530           	3362.178163 	6           	128.0722    	0           	Open  	;
 P-114           	J-185           	J-186           	492.4815059 	6           	122.8135    	0           	Open  	;
 P-115           	J-187           	J-275           	833.5595509 	6           	150         	0           	Open  	;
 P-116           	J-189           	J-190           	4331.273173 	6           	120         	0           	Open  	;
 P-117           	J-192           	J-44            	632.9230383 	6           	140         	0           	Open  	;
 P-118           	J-31            	J-193           	2766.00967  	6           	102.6087    	0           	Open  	;
 P-119           	J-194           	J-195           	525.4679524 	6           	140         	0           	Open  	;
 P-12            	J-22            	J-23            	5601.345219 	6           	140         	0           	Open  	;
 P-120           	J-196           	J-197           	150.9001585 	6           	140         	0           	Open  	;
 P-121           	J-86            	O-Pump-2        	367.1783065 	6           	140         	0           	Open  	;
 P-122           	J-139           	J-200           	913.7759049 	6           	140         	0           	Open  	;
 P-123           	J-201           	J-202           	1284.095826 	6           	122.8135    	0           	Open  	;
 P-124           	J-203           	J-204           	4024.610834 	6           	150         	0           	Open  	;
 P-125           	J-56            	J-205           	3974.593637 	6           	120         	0           	Open  	;
 P-126           	J-206           	J-207           	447.5063937 	6           	150         	0           	Open  	;
 P-127           	J-208           	J-209           	3239.938439 	6           	150         	0           	Open  	;
 P-128           	J-210           	J-31            	2294.848058 	6           	102.6087    	0           	Open  	;
 P-129           	J-211           	J-18            	2974.949667 	6           	140         	0           	Open  	;
 P-13            	J-24            	J-28            	355.854     	6           	140         	0           	Open  	;
 P-130           	J-212           	I-Pump-9        	569.496856  	6           	140         	0           	Open  	;
 P-131           	J-58            	J-213           	476.8187318 	6           	150         	0           	Open  	;
 P-132           	J-27            	J-32            	345.0027979 	6           	86.1445     	0           	Open  	;
 P-133           	J-132           	J-20            	940.7428534 	6           	140         	0           	Open  	;
 P-134           	J-216           	J-38            	187.691572  	6           	140         	0           	Open  	;
 P-135           	J-218           	J-72            	482.7768269 	6           	140         	0           	Open  	;
 P-136           	J-219           	J-155           	618.2255984 	6           	140         	0           	Open  	;
 P-137           	J-220           	I-RV-13         	4661.98988  	6           	122.8135    	0           	Open  	;
 P-138           	J-130           	J-222           	3528.12002  	6           	140         	0           	Open  	;
 P-139           	J-223           	J-224           	768.2802087 	6           	140         	0           	Open  	;
 P-14            	J-26            	T-2             	2157.38507  	6           	140         	0           	Open  	;
 P-140           	J-32            	J-29            	659.4259419 	6           	86.1445     	0           	Open  	;
 P-141           	J-115           	J-226           	461.4780713 	6           	69.091      	0           	Open  	;
 P-142           	J-138           	J-227           	158.7818758 	6           	140         	0           	Open  	;
 P-143           	J-228           	J-114           	333.4077147 	6           	140         	0           	Open  	;
 P-144           	J-204           	O-RV-7          	513.3182299 	6           	150         	0           	Open  	;
 P-145           	J-178           	I-RV-12         	3630.065957 	6           	140         	0           	Open  	;
 P-146           	J-231           	J-232           	3302.588454 	6           	150         	0           	Open  	;
 P-147           	J-233           	I-Pump-10       	546.425469  	6           	150         	0           	Open  	;
 P-148           	J-234           	I-RV-3          	1155.702349 	6           	140         	0           	Open  	;
 P-149           	J-236           	J-187           	1661.280793 	6           	150         	0           	Open  	;
 P-15            	J-28            	J-77            	127.0728111 	6           	150         	0           	Open  	;
 P-150           	J-237           	J-58            	380.4966975 	6           	150         	0           	Open  	;
 P-151           	J-188           	J-206           	2535.576642 	6           	150         	0           	Open  	;
 P-152           	J-234           	J-321           	4388.245155 	6           	140         	0           	Open  	;
 P-153           	J-239           	J-240           	87.74475297 	6           	140         	0           	Open  	;
 P-154           	J-241           	J-242           	5587.36879  	6           	131.3043    	0           	Open  	;
 P-155           	J-3             	J-243           	1313.860129 	6           	150         	0           	Open  	;
 P-156           	J-16            	J-244           	4416.942306 	6           	140         	0           	Open  	;
 P-157           	J-245           	J-3             	1845.62037  	6           	150         	0           	Open  	;
 P-158           	J-246           	J-247           	1297.322616 	6           	140         	0           	Open  	;
 P-159           	J-248           	J-83            	832.7442008 	6           	129.9604    	0           	Open  	;
 P-16            	J-30            	J-31            	6169.014161 	6           	131.3043    	0           	Open  	;
 P-160           	J-249           	J-250           	624.437358  	6           	140         	0           	Open  	;
 P-161           	J-251           	I-RV-26         	3605.345751 	6           	140         	0           	Open  	;
 P-162           	J-212           	J-253           	343.4133686 	6           	140         	0           	Open  	;
 P-163           	J-197           	J-240           	1497.917857 	6           	140         	0           	Open  	;
 P-164           	J-254           	J-255           	3063.329588 	6           	150         	0           	Open  	;
 P-165           	J-256           	J-257           	3360.777271 	6           	150         	0           	Open  	;
 P-166           	J-258           	J-259           	316.0931017 	6           	140         	0           	Open  	;
 P-167           	J-260           	J-261           	3775.756934 	6           	150         	0           	Open  	;
 P-168           	J-262           	J-51            	2572.248269 	6           	150         	0           	Open  	;
 P-169           	J-137           	J-55            	3430.468563 	6           	120         	0           	Open  	;
 P-17            	J-6             	J-324           	984.8814769 	6           	140         	0           	Open  	;
 P-170           	J-263           	J-264           	1756.645546 	6           	150         	0           	Open  	;
 P-171           	J-265           	J-266           	2061.32576  	6           	150         	0           	Open  	;
 P-172           	J-233           	J-104           	3707.635946 	6           	150         	0           	Open  	;
 P-173           	J-267           	J-268           	3503.412196 	6           	150         	0           	Open  	;
 P-174           	J-89            	J-269           	1224.896378 	6           	150         	0           	Open  	;
 P-175           	J-270           	J-131           	80.46800528 	6           	69.091      	0           	Open  	;
 P-176           	J-271           	J-272           	1486.11038  	6           	140         	0           	Open  	;
 P-177           	J-273           	J-274           	1040.24576  	6           	141.8326    	0           	Open  	;
 P-178           	J-145           	J-263           	3379.113588 	6           	150         	0           	Open  	;
 P-179           	J-275           	J-588           	467.0143989 	6           	144.7356    	0           	Open  	;
 P-18            	J-34            	T-8             	513.8305918 	6           	150         	0           	Open  	;
 P-180           	J-19            	J-277           	1069.335638 	6           	140         	0           	Open  	;
 P-181           	J-278           	J-279           	2451.878441 	6           	150         	0           	Open  	;
 P-182           	J-104           	J-280           	4485.401664 	6           	150         	0           	Open  	;
 P-183           	J-92            	J-281           	3517.442256 	6           	150         	0           	Open  	;
 P-184           	J-282           	I-Pump-11       	2412.691308 	6           	140         	0           	Open  	;
 P-185           	J-284           	J-531           	4685.930974 	6           	144.7356    	0           	Open  	;
 P-186           	J-286           	J-287           	235.5848322 	6           	140         	0           	Open  	;
 P-187           	J-288           	J-272           	1249.165625 	6           	140         	0           	Open  	;
 P-188           	J-137           	J-289           	3741.959466 	6           	120         	0           	Open  	;
 P-189           	J-290           	J-291           	3317.763025 	6           	140         	0           	Open  	;
 P-19            	J-36            	J-37            	4532.915284 	6           	141.8326    	0           	Open  	;
 P-190           	J-85            	J-72            	52.42398943 	6           	140         	0           	Open  	;
 P-191           	T-7             	J-198           	1949.562404 	6           	140         	0           	Open  	;
 P-192           	J-294           	J-295           	134.955535  	6           	69.091      	0           	Open  	;
 P-193           	J-296           	J-60            	4744.080532 	6           	140         	0           	Open  	;
 P-194           	J-297           	J-298           	1163.986708 	6           	131.3043    	0           	Open  	;
 P-195           	J-52            	J-299           	5976.682543 	6           	150         	0           	Open  	;
 P-196           	J-300           	J-282           	3567.293363 	6           	140         	0           	Open  	;
 P-197           	J-26            	O-Pump-7        	1250.998653 	6           	140         	0           	Open  	;
 P-198           	J-302           	J-303           	2369.910594 	6           	150         	0           	Open  	;
 P-199           	J-304           	J-305           	10.39722325 	6           	140         	0           	Open  	;
 P-2             	J-3             	J-4             	3586.628937 	6           	150         	0           	Open  	;
 P-20            	J-89            	J-23            	4005.103131 	6           	150         	0           	Open  	;
 P-200           	J-306           	J-50            	2623.504597 	6           	140         	0           	Open  	;
 P-201           	J-307           	J-308           	399.7631176 	6           	140         	0           	Open  	;
 P-202           	J-309           	J-310           	737.740819  	6           	140         	0           	Open  	;
 P-203           	J-311           	J-6             	4042.288831 	6           	150         	0           	Open  	;
 P-204           	J-313           	J-314           	512.5834082 	6           	69.091      	0           	Open  	;
 P-205           	J-315           	J-241           	2044.142005 	6           	131.3043    	0           	Open  	;
 P-206           	J-316           	J-317           	38.0798679  	6           	140         	0           	Open  	;
 P-207           	J-318           	J-315           	3350.153561 	6           	131.3043    	0           	Open  	;
 P-208           	J-310           	J-35            	801.0552682 	6           	140         	0           	Open  	;
 P-209           	J-269           	J-267           	3945.784904 	6           	150         	0           	Open  	;
 P-21            	J-440           	J-10            	2278.378993 	6           	150         	0           	Open  	;
 P-210           	J-186           	J-122           	2286.482164 	6           	122.8135    	0           	Open  	;
 P-211           	J-50            	J-320           	1481.157884 	6           	140         	0           	Open  	;
 P-212           	J-321           	J-165           	2338.483379 	6           	150         	0           	Open  	;
 P-213           	J-322           	J-161           	2980.637992 	6           	131.3043    	0           	Open  	;
 P-214           	T-6             	J-389           	1430.637384 	6           	140         	0           	Open  	;
 P-215           	J-325           	J-326           	2668.791757 	6           	150         	0           	Open  	;
 P-216           	J-327           	J-92            	2187.734211 	6           	150         	0           	Open  	;
 P-217           	J-328           	O-RV-9          	1754.049511 	6           	150         	0           	Open  	;
 P-218           	J-183           	J-517           	245.3197094 	6           	86.1445     	0           	Open  	;
 P-219           	J-71            	J-331           	3990.447666 	6           	120         	0           	Open  	;
 P-22            	J-41            	J-7             	2328.045892 	6           	140         	0           	Open  	;
 P-220           	J-332           	J-333           	4569.095839 	6           	150         	0           	Open  	;
 P-221           	J-160           	J-115           	656.6779102 	6           	69.091      	0           	Open  	;
 P-222           	J-333           	J-34            	3171.438967 	6           	150         	0           	Open  	;
 P-223           	J-334           	J-335           	4200.705612 	6           	150         	0           	Open  	;
 P-224           	J-336           	J-61            	3879.079907 	6           	140         	0           	Open  	;
 P-225           	J-337           	J-320           	1024.521583 	6           	140         	0           	Open  	;
 P-226           	J-338           	J-260           	1911.733181 	6           	150         	0           	Open  	;
 P-227           	J-320           	J-147           	3419.443218 	6           	140         	0           	Open  	;
 P-228           	J-317           	J-8             	2310.046787 	6           	140         	0           	Open  	;
 P-229           	J-339           	J-304           	603.9227477 	6           	140         	0           	Open  	;
 P-23            	J-23            	J-42            	4819.755437 	6           	140         	0           	Open  	;
 P-230           	J-340           	J-318           	4001.213307 	6           	122.8135    	0           	Open  	;
 P-231           	J-317           	J-341           	392.4652312 	6           	140         	0           	Open  	;
 P-232           	J-342           	J-325           	1101.527873 	6           	150         	0           	Open  	;
 P-233           	J-326           	J-343           	2538.748454 	6           	150         	0           	Open  	;
 P-234           	J-344           	J-233           	501.3597622 	6           	150         	0           	Open  	;
 P-235           	J-345           	J-299           	3429.051968 	6           	150         	0           	Open  	;
 P-236           	J-93            	J-346           	5349.058595 	6           	150         	0           	Open  	;
 P-237           	J-343           	J-347           	1898.336275 	6           	150         	0           	Open  	;
 P-238           	J-158           	J-196           	1519.218626 	6           	140         	0           	Open  	;
 P-239           	J-348           	J-349           	1034.909746 	6           	140         	0           	Open  	;
 P-24            	J-10            	I-Pump-5        	3962.110024 	6           	140         	0           	Open  	;
 P-240           	J-350           	J-348           	515.351572  	6           	59.091      	0           	Open  	;
 P-241           	J-268           	J-338           	3557.657133 	6           	150         	0           	Open  	;
 P-242           	J-76            	J-351           	3010.412362 	6           	140         	0           	Open  	;
 P-243           	J-352           	J-353           	640.8550859 	6           	150         	0           	Open  	;
 P-244           	J-347           	J-354           	1879.934528 	6           	150         	0           	Open  	;
 P-245           	J-353           	J-167           	2746.933498 	6           	150         	0           	Open  	;
 P-246           	J-355           	J-136           	4532.610282 	6           	120         	0           	Open  	;
 P-247           	J-189           	J-71            	5080.80954  	6           	120         	0           	Open  	;
 P-248           	J-305           	J-356           	591.6008956 	6           	140         	0           	Open  	;
 P-249           	J-167           	J-245           	1917.702349 	6           	150         	0           	Open  	;
 P-25            	J-9             	J-146           	947.8092206 	6           	140         	0           	Open  	;
 P-250           	J-357           	O-RV-5          	717.8895614 	6           	150         	0           	Open  	;
 P-251           	J-17            	J-24            	83.74853104 	6           	140         	0           	Open  	;
 P-252           	J-358           	J-342           	182.5780185 	6           	150         	0           	Open  	;
 P-253           	J-153           	J-359           	1826.525073 	6           	140         	0           	Open  	;
 P-254           	J-21            	J-100           	71.40856011 	6           	140         	0           	Open  	;
 P-255           	J-201           	J-361           	3349.513059 	6           	122.8135    	0           	Open  	;
 P-256           	J-284           	J-362           	1780.472893 	6           	140         	0           	Open  	;
 P-257           	J-363           	J-364           	355.8841982 	6           	140         	0           	Open  	;
 P-258           	J-84            	J-365           	1469.994634 	6           	129.9604    	0           	Open  	;
 P-259           	J-127           	J-302           	886.5361664 	6           	150         	0           	Open  	;
 P-26            	J-9             	J-7             	501.6718098 	6           	150         	0           	Open  	;
 P-260           	J-366           	J-278           	199.6701717 	6           	150         	0           	Open  	;
 P-261           	J-318           	J-367           	4384.560829 	6           	131.3043    	0           	Open  	;
 P-262           	J-368           	J-369           	1340.142587 	6           	140         	0           	Open  	;
 P-263           	J-340           	J-370           	2868.964225 	6           	122.8135    	0           	Open  	;
 P-264           	J-371           	J-372           	526.4745575 	6           	140         	0           	Open  	;
 P-265           	J-373           	J-374           	1020.565625 	6           	140         	0           	Open  	;
 P-266           	J-375           	J-376           	3516.732298 	6           	140         	0           	Open  	;
 P-267           	J-377           	J-378           	2451.827104 	6           	140         	0           	Open  	;
 P-268           	J-379           	J-244           	212.674502  	6           	140         	0           	Open  	;
 P-269           	J-354           	J-352           	915.2153501 	6           	150         	0           	Open  	;
 P-27            	O-Pump-10       	J-145           	5155.898601 	6           	150         	0           	Open  	;
 P-270           	J-380           	J-381           	3671.917876 	6           	140         	0           	Open  	;
 P-271           	J-114           	J-552           	279.9066579 	6           	59.091      	0           	Open  	;
 P-272           	J-384           	J-385           	1358.816116 	6           	140         	0           	Open  	;
 P-273           	J-384           	J-386           	3418.534254 	6           	140         	0           	Open  	;
 P-274           	J-13            	J-379           	786.9134742 	6           	140         	0           	Open  	;
 P-275           	J-382           	J-73            	205.9614531 	6           	140         	0           	Open  	;
 P-276           	J-224           	J-387           	274.4307266 	6           	140         	0           	Open  	;
 P-277           	J-163           	J-388           	1421.93931  	6           	122.8135    	0           	Open  	;
 P-278           	J-228           	J-286           	216.9435139 	6           	140         	0           	Open  	;
 P-279           	J-389           	J-390           	180.5446764 	6           	140         	0           	Open  	;
 P-28            	J-48            	J-36            	5686.007144 	6           	141.8326    	0           	Open  	;
 P-280           	J-310           	J-389           	2320.716801 	6           	140         	0           	Open  	;
 P-281           	J-377           	J-391           	2388.823696 	6           	140         	0           	Open  	;
 P-282           	J-392           	J-393           	3662.284666 	6           	150         	0           	Open  	;
 P-283           	J-134           	I-RV-27         	4371.175499 	6           	140         	0           	Open  	;
 P-284           	J-395           	J-396           	2276.487583 	6           	150         	0           	Open  	;
 P-285           	J-185           	J-163           	2052.295506 	6           	122.8135    	0           	Open  	;
 P-286           	J-286           	J-397           	432.3861797 	6           	140         	0           	Open  	;
 P-287           	J-47            	J-561           	50.79228269 	6           	130.6237    	0           	Open  	;
 P-288           	J-400           	J-44            	14.16192602 	6           	140         	0           	Open  	;
 P-289           	J-390           	J-228           	679.6697754 	6           	122.8135    	0           	Open  	;
 P-29            	J-49            	J-50            	2760.240816 	6           	140         	0           	Open  	;
 P-290           	J-388           	J-176           	1788.656592 	6           	122.8135    	0           	Open  	;
 P-291           	J-305           	J-258           	86.27510964 	6           	140         	0           	Open  	;
 P-292           	J-401           	J-552           	1024.904092 	6           	140         	0           	Open  	;
 P-293           	J-402           	J-403           	2978.312734 	6           	140         	0           	Open  	;
 P-294           	J-62            	J-107           	337.0012946 	6           	140         	0           	Open  	;
 P-295           	J-141           	J-62            	194.8284016 	6           	140         	0           	Open  	;
 P-296           	J-404           	J-133           	3072.831939 	6           	140         	0           	Open  	;
 P-297           	J-405           	J-363           	37.77687979 	6           	59.091      	0           	Open  	;
 P-298           	J-295           	J-350           	512.2713606 	6           	69.091      	0           	Open  	;
 P-299           	J-406           	J-162           	5810.967896 	6           	130.6237    	0           	Open  	;
 P-3             	O-Pump-9        	T-6             	334.6357728 	6           	140         	0           	Open  	;
 P-30            	J-51            	J-52            	118.627395  	6           	150         	0           	Open  	;
 P-300           	J-407           	J-226           	302.4646764 	6           	69.091      	0           	Open  	;
 P-301           	J-259           	J-401           	50.49030119 	6           	140         	0           	Open  	;
 P-302           	J-363           	J-408           	1427.968875 	6           	59.091      	0           	Open  	;
 P-303           	J-351           	J-174           	1918.165387 	6           	140         	0           	Open  	;
 P-304           	J-174           	J-402           	1441.658703 	6           	140         	0           	Open  	;
 P-305           	J-116           	J-68            	103.1770145 	6           	140         	0           	Open  	;
 P-306           	J-356           	J-409           	425.4617437 	6           	140         	0           	Open  	;
 P-307           	J-410           	J-411           	663.3627741 	6           	140         	0           	Open  	;
 P-308           	J-194           	J-412           	322.6169089 	6           	140         	0           	Open  	;
 P-309           	J-195           	J-413           	2288.546711 	6           	140         	0           	Open  	;
 P-31            	J-53            	J-54            	97.12631176 	6           	150         	0           	Open  	;
 P-310           	J-414           	J-415           	4049.959464 	6           	150         	0           	Open  	;
 P-311           	J-223           	J-416           	605.713498  	6           	140         	0           	Open  	;
 P-312           	J-152           	J-417           	1331.617649 	6           	140         	0           	Open  	;
 P-313           	J-65            	J-311           	4453.805189 	6           	140         	0           	Open  	;
 P-314           	J-418           	J-170           	3367.677246 	6           	131.3043    	0           	Open  	;
 P-315           	J-176           	J-220           	951.1209511 	6           	122.8135    	0           	Open  	;
 P-316           	J-419           	J-43            	41.24060766 	6           	59.091      	0           	Open  	;
 P-317           	J-226           	J-421           	317.7640661 	6           	69.091      	0           	Open  	;
 P-318           	J-399           	J-121           	2382.99646  	6           	66.1358     	0           	Open  	;
 P-319           	J-422           	J-405           	154.4534742 	6           	140         	0           	Open  	;
 P-32            	J-55            	J-56            	230.4310145 	6           	120         	0           	Open  	;
 P-320           	J-423           	J-131           	372.7750304 	6           	140         	0           	Open  	;
 P-321           	J-292           	J-78            	2702.543223 	6           	140         	0           	Open  	;
 P-322           	J-403           	J-18            	395.3028507 	6           	140         	0           	Open  	;
 P-323           	J-424           	J-392           	1365.6107   	6           	150         	0           	Open  	;
 P-324           	J-393           	J-425           	2238.548639 	6           	150         	0           	Open  	;
 P-325           	J-257           	J-426           	2833.955509 	6           	150         	0           	Open  	;
 P-326           	J-427           	J-424           	229.4848058 	6           	150         	0           	Open  	;
 P-327           	J-223           	J-194           	254.196959  	6           	140         	0           	Open  	;
 P-328           	J-400           	J-405           	1193.18832  	6           	59.091      	0           	Open  	;
 P-329           	J-428           	J-357           	2615.390354 	6           	150         	0           	Open  	;
 P-33            	J-57            	J-58            	85.54129458 	6           	150         	0           	Open  	;
 P-330           	J-429           	J-336           	3112.411649 	6           	140         	0           	Open  	;
 P-331           	J-425           	I-RV-8          	4358.738391 	6           	150         	0           	Open  	;
 P-332           	J-390           	J-397           	413.3724174 	6           	140         	0           	Open  	;
 P-333           	J-430           	J-42            	866.8278468 	6           	140         	0           	Open  	;
 P-334           	J-401           	J-431           	680.7760343 	6           	140         	0           	Open  	;
 P-335           	J-272           	J-429           	3343.44625  	6           	140         	0           	Open  	;
 P-336           	J-432           	J-433           	814.0203408 	6           	140         	0           	Open  	;
 P-337           	J-321           	I-RV-2          	1104.406764 	6           	150         	0           	Open  	;
 P-338           	J-253           	J-239           	116.1722853 	6           	140         	0           	Open  	;
 P-339           	J-148           	J-435           	144.4981506 	6           	140         	0           	Open  	;
 P-34            	J-58            	J-59            	373.1484808 	6           	150         	0           	Open  	;
 P-340           	J-433           	J-436           	1859.632312 	6           	140         	0           	Open  	;
 P-341           	J-226           	J-437           	148.2930515 	6           	69.091      	0           	Open  	;
 P-342           	J-67            	J-438           	4313.635943 	6           	150         	0           	Open  	;
 P-343           	J-368           	J-404           	1347.420341 	6           	140         	0           	Open  	;
 P-344           	J-29            	J-330           	406.1751915 	6           	86.1445     	0           	Open  	;
 P-345           	J-197           	O-Pump-4        	471.5441215 	6           	128.0722    	0           	Open  	;
 P-346           	J-251           	J-234           	2022.892573 	6           	140         	0           	Open  	;
 P-347           	J-89            	J-441           	3427.587659 	6           	150         	0           	Open  	;
 P-348           	J-442           	J-1             	3387.85867  	6           	150         	0           	Open  	;
 P-349           	J-282           	J-334           	3275.622587 	6           	140         	0           	Open  	;
 P-35            	J-60            	J-61            	2961.400764 	6           	140         	0           	Open  	;
 P-350           	J-326           	J-444           	2453.358151 	6           	150         	0           	Open  	;
 P-351           	J-283           	J-445           	2250.074267 	6           	140         	0           	Open  	;
 P-352           	J-109           	J-446           	3348.190682 	6           	140         	0           	Open  	;
 P-353           	J-447           	J-356           	102.3214003 	6           	140         	0           	Open  	;
 P-354           	J-448           	J-449           	383.0323355 	6           	140         	0           	Open  	;
 P-355           	J-450           	J-451           	257.0365918 	6           	69.091      	0           	Open  	;
 P-356           	J-452           	I-RV-17         	4740.19856  	6           	140         	0           	Open  	;
 P-357           	J-121           	J-132           	109.9715984 	6           	140         	0           	Open  	;
 P-358           	J-125           	J-194           	46.15183355 	6           	140         	0           	Open  	;
 P-359           	J-454           	J-455           	735.7678732 	6           	140         	0           	Open  	;
 P-36            	J-62            	J-63            	923.4181744 	6           	140         	0           	Open  	;
 P-360           	J-456           	J-457           	3437.474534 	6           	140         	0           	Open  	;
 P-361           	J-434           	J-458           	2938.038468 	6           	150         	0           	Open  	;
 P-362           	J-283           	J-10            	3238.428531 	6           	140         	0           	Open  	;
 P-363           	J-449           	J-460           	434.9127583 	6           	140         	0           	Open  	;
 P-364           	J-280           	J-427           	158.740605  	6           	150         	0           	Open  	;
 P-365           	J-461           	J-462           	3534.797133 	6           	150         	0           	Open  	;
 P-366           	J-463           	J-273           	325.8682431 	6           	150         	0           	Open  	;
 P-367           	J-464           	I-RV-18         	5033.205025 	6           	150         	0           	Open  	;
 P-368           	J-290           	J-466           	1102.805255 	6           	140         	0           	Open  	;
 P-369           	J-351           	J-467           	721.2012919 	6           	140         	0           	Open  	;
 P-37            	J-64            	J-65            	1821.622906 	6           	140         	0           	Open  	;
 P-370           	J-43            	J-400           	256.6540819 	6           	59.091      	0           	Open  	;
 P-371           	J-105           	J-470           	554.2558494 	6           	150         	0           	Open  	;
 P-372           	J-69            	I-Pump-4        	63.08292999 	6           	130.6237    	0           	Open  	;
 P-373           	J-120           	J-66            	1212.052098 	6           	150         	0           	Open  	;
 P-374           	J-192           	J-191           	151.6138415 	6           	140         	0           	Open  	;
 P-375           	J-68            	J-118           	65.37798943 	6           	140         	0           	Open  	;
 P-376           	J-19            	J-368           	3825.62918  	6           	140         	0           	Open  	;
 P-377           	J-86            	J-350           	773.9977252 	6           	140         	0           	Open  	;
 P-378           	J-473           	J-474           	3196.956404 	6           	140         	0           	Open  	;
 P-379           	J-421           	J-117           	417.2971704 	6           	69.091      	0           	Open  	;
 P-38            	J-66            	J-67            	4676.063728 	6           	150         	0           	Open  	;
 P-380           	J-40            	I-Pump-4        	2215.598045 	6           	140         	0           	Open  	;
 P-381           	J-476           	J-382           	111.2993104 	6           	140         	0           	Open  	;
 P-382           	J-477           	J-478           	1208.982959 	6           	140         	0           	Open  	;
 P-383           	J-101           	J-479           	2103.653501 	6           	140         	0           	Open  	;
 P-384           	J-402           	J-480           	2400.24967  	6           	140         	0           	Open  	;
 P-385           	J-186           	J-481           	3112.824357 	6           	122.8135    	0           	Open  	;
 P-386           	J-482           	J-575           	2424.750436 	6           	140         	0           	Open  	;
 P-387           	J-388           	J-201           	3737.807221 	6           	122.8135    	0           	Open  	;
 P-388           	J-214           	J-32            	923.5903038 	6           	140         	0           	Open  	;
 P-389           	J-180           	J-484           	1117.844941 	6           	140         	0           	Open  	;
 P-39            	J-68            	I-Pump-8        	180.6453369 	6           	140         	0           	Open  	;
 P-390           	J-349           	J-431           	295.7697464 	6           	140         	0           	Open  	;
 P-391           	J-335           	J-256           	435.2147398 	6           	150         	0           	Open  	;
 P-392           	J-64            	J-485           	2804.170066 	6           	140         	0           	Open  	;
 P-393           	J-336           	J-486           	2051.74288  	6           	140         	0           	Open  	;
 P-394           	O-RV-2          	J-434           	485.585255  	6           	150         	0           	Open  	;
 P-395           	J-488           	O-RV-19         	421.9386262 	6           	140         	0           	Open  	;
 P-396           	J-406           	O-Pump-1        	1618.831252 	6           	140         	0           	Open  	;
 P-397           	J-490           	O-Pump-12       	3676.948586 	6           	150         	0           	Open  	;
 P-398           	J-491           	I-RV-1          	4212.422192 	6           	150         	0           	Open  	;
 P-399           	J-396           	J-493           	764.6362985 	6           	150         	0           	Open  	;
 P-4             	J-7             	J-8             	3321.311308 	6           	140         	0           	Open  	;
 P-40            	J-61            	J-64            	2328.851176 	6           	140         	0           	Open  	;
 P-400           	J-494           	J-133           	1313.074978 	6           	140         	0           	Open  	;
 P-401           	J-303           	J-461           	3940.793149 	6           	150         	0           	Open  	;
 P-402           	J-495           	J-496           	3732.024275 	6           	140         	0           	Open  	;
 P-403           	J-307           	J-497           	335.7319657 	6           	140         	0           	Open  	;
 P-404           	J-498           	J-499           	798.6696143 	6           	140         	0           	Open  	;
 P-405           	J-436           	I-RV-23         	1064.423406 	6           	140         	0           	Open  	;
 P-406           	J-268           	J-501           	4528.796407 	6           	150         	0           	Open  	;
 P-407           	J-502           	J-491           	4445.212305 	6           	150         	0           	Open  	;
 P-408           	J-441           	J-502           	2063.902668 	6           	150         	0           	Open  	;
 P-409           	J-502           	J-503           	4570.882059 	6           	150         	0           	Open  	;
 P-41            	J-70            	J-71            	1183.484647 	6           	120         	0           	Open  	;
 P-410           	J-504           	J-505           	1036.219339 	6           	150         	0           	Open  	;
 P-411           	J-36            	J-463           	2689.848927 	6           	141.8326    	0           	Open  	;
 P-412           	J-426           	J-507           	1023.415324 	6           	150         	0           	Open  	;
 P-413           	J-508           	J-509           	3226.03823  	6           	140         	0           	Open  	;
 P-414           	J-426           	J-57            	2045.762639 	6           	150         	0           	Open  	;
 P-415           	J-436           	I-RV-24         	1972.110357 	6           	140         	0           	Open  	;
 P-416           	J-154           	J-511           	3328.969257 	6           	150         	0           	Open  	;
 P-417           	J-192           	J-512           	899.7236988 	6           	140         	0           	Open  	;
 P-418           	J-153           	J-513           	2347.281107 	6           	140         	0           	Open  	;
 P-419           	J-380           	J-514           	3830.482325 	6           	140         	0           	Open  	;
 P-42            	J-107           	J-215           	986.8554293 	6           	66.1358     	0           	Open  	;
 P-420           	J-74            	J-78a           	331.987395  	6           	140         	0           	Open  	;
 P-421           	I-Pump-4        	J-517           	463.8033289 	6           	86.1445     	0           	Open  	;
 P-422           	J-518           	J-519           	1894.268584 	6           	129.9604    	0           	Open  	;
 P-423           	J-520           	I-RV-15         	861.7444914 	6           	129.9604    	0           	Open  	;
 P-424           	J-522           	J-477           	917.2788904 	6           	140         	0           	Open  	;
 P-425           	J-523           	J-524           	619.9579657 	6           	129.9604    	0           	Open  	;
 P-426           	J-209           	J-464           	3305.943167 	6           	150         	0           	Open  	;
 P-427           	J-525           	J-212           	296.2831149 	6           	140         	0           	Open  	;
 P-428           	J-441           	J-442           	3632.536166 	6           	150         	0           	Open  	;
 P-429           	J-526           	J-527           	1092.386893 	6           	128.0722    	0           	Open  	;
 P-43            	J-12            	I-RV-22         	4160.635686 	6           	144.7356    	0           	Open  	;
 P-430           	J-528           	J-524           	911.8522827 	6           	129.9604    	0           	Open  	;
 P-431           	J-432           	J-300           	2465.859178 	6           	140         	0           	Open  	;
 P-432           	J-83            	J-520           	162.5566446 	6           	129.9604    	0           	Open  	;
 P-433           	J-97            	J-399           	677.1532629 	6           	140         	0           	Open  	;
 P-434           	J-149           	O-Pump-4        	4416.768667 	6           	140         	0           	Open  	;
 P-435           	J-207           	J-531           	3837.886911 	6           	150         	0           	Open  	;
 P-436           	J-54            	I-RV-21         	4303.451768 	6           	150         	0           	Open  	;
 P-437           	J-450           	J-270           	234.0648587 	6           	69.091      	0           	Open  	;
 P-438           	J-160           	J-450           	169.8847292 	6           	69.091      	0           	Open  	;
 P-439           	J-199           	J-129           	203.3845443 	6           	140         	0           	Open  	;
 P-44            	J-75            	J-76            	1507.33968  	6           	140         	0           	Open  	;
 P-440           	J-247           	J-94            	1915.076116 	6           	140         	0           	Open  	;
 P-441           	J-373           	J-533           	1565.814373 	6           	140         	0           	Open  	;
 P-442           	J-254           	J-534           	1732.738676 	6           	150         	0           	Open  	;
 P-443           	J-231           	J-327           	4486.031296 	6           	150         	0           	Open  	;
 P-444           	J-243           	J-126           	1367.603778 	6           	150         	0           	Open  	;
 P-445           	J-222           	J-535           	3344.297838 	6           	140         	0           	Open  	;
 P-446           	J-536           	J-537           	4712.748441 	6           	141.8326    	0           	Open  	;
 P-447           	J-504           	J-490           	4220.258914 	6           	150         	0           	Open  	;
 P-448           	J-538           	J-539           	315.017041  	6           	128.0722    	0           	Open  	;
 P-449           	J-245           	J-540           	1534.317701 	6           	150         	0           	Open  	;
 P-45            	J-78a           	J-144           	1009.472838 	6           	130.6237    	0           	Open  	;
 P-450           	J-266           	J-145           	1855.726684 	6           	150         	0           	Open  	;
 P-451           	J-40            	J-516           	103.6289802 	6           	140         	0           	Open  	;
 P-452           	J-543           	J-313           	109.2458362 	6           	69.091      	0           	Open  	;
 P-453           	J-544           	J-348           	298.2168032 	6           	69.091      	0           	Open  	;
 P-454           	J-409           	J-545           	28.54731836 	6           	140         	0           	Open  	;
 P-455           	J-139           	J-63            	280.5800766 	6           	140         	0           	Open  	;
 P-456           	J-547           	J-78            	1592.358547 	6           	130.6237    	0           	Open  	;
 P-457           	J-548           	J-528           	3079.415136 	6           	129.9604    	0           	Open  	;
 P-458           	J-215           	J-218           	555.6248322 	6           	140         	0           	Open  	;
 P-459           	J-545           	J-551           	100.5487688 	6           	140         	0           	Open  	;
 P-46            	J-55            	J-79            	301.387609  	6           	120         	0           	Open  	;
 P-460           	J-114           	J-229           	1624.488373 	6           	140         	0           	Open  	;
 P-461           	J-520           	J-548           	3413.787104 	6           	129.9604    	0           	Open  	;
 P-462           	J-521           	J-554           	259.9557464 	6           	129.9604    	0           	Open  	;
 P-463           	J-397           	J-544           	2147.329086 	6           	140         	0           	Open  	;
 P-464           	J-548           	J-555           	828.1530753 	6           	129.9604    	0           	Open  	;
 P-465           	J-556           	J-60            	2061.143564 	6           	140         	0           	Open  	;
 P-466           	J-331           	J-557           	4679.092602 	6           	120         	0           	Open  	;
 P-467           	J-558           	J-355           	666.0000793 	6           	120         	0           	Open  	;
 P-468           	J-557           	J-559           	1213.744201 	6           	120         	0           	Open  	;
 P-469           	J-106           	J-116           	121.5666816 	6           	66.1358     	0           	Open  	;
 P-47            	J-578           	J-346           	311.4335271 	6           	150         	0           	Open  	;
 P-470           	J-346           	I-RV-10         	1791.111701 	6           	150         	0           	Open  	;
 P-471           	J-562           	J-563           	1095.347318 	6           	140         	0           	Open  	;
 P-472           	J-130           	J-195           	39.78103038 	6           	140         	0           	Open  	;
 P-473           	J-165           	J-504           	3904.980861 	6           	150         	0           	Open  	;
 P-474           	J-564           	J-39            	1483.100631 	6           	129.9604    	0           	Open  	;
 P-475           	J-291           	J-15            	3862.117606 	6           	140         	0           	Open  	;
 P-476           	J-565           	J-93            	2216.492917 	6           	150         	0           	Open  	;
 P-477           	J-431           	J-447           	200.3647292 	6           	140         	0           	Open  	;
 P-478           	J-224           	J-566           	355.6728111 	6           	140         	0           	Open  	;
 P-479           	J-61            	J-559           	4698.485855 	6           	120         	0           	Open  	;
 P-48            	J-15            	J-432           	1634.142721 	6           	140         	0           	Open  	;
 P-480           	J-80            	J-265           	2918.801239 	6           	150         	0           	Open  	;
 P-481           	J-220           	J-340           	2778.793554 	6           	122.8135    	0           	Open  	;
 P-482           	J-568           	I-Pump-13       	4170.652412 	6           	150         	0           	Open  	;
 P-483           	J-526           	J-33            	1518.060024 	6           	128.0722    	0           	Open  	;
 P-484           	J-291           	J-384           	1570.474954 	6           	140         	0           	Open  	;
 P-485           	J-411           	J-259           	709.7058626 	6           	59.091      	0           	Open  	;
 P-486           	J-84            	I-RV-16         	660.050037  	6           	129.9604    	0           	Open  	;
 P-487           	J-498           	J-300           	713.2501189 	6           	140         	0           	Open  	;
 P-488           	J-91            	J-571           	533.591255  	6           	69.091      	0           	Open  	;
 P-489           	I-Pump-7        	J-301           	982.1445178 	6           	140         	0           	Open  	;
 P-49            	J-83            	J-84            	679.8902219 	6           	129.9604    	0           	Open  	;
 P-490           	J-545           	J-305           	1066.829192 	6           	140         	0           	Open  	;
 P-491           	J-574           	J-46            	3230.848795 	6           	130.6237    	0           	Open  	;
 P-492           	J-575           	J-35            	1337.778071 	6           	128.0722    	0           	Open  	;
 P-493           	J-270           	J-571           	216.973712  	6           	69.091      	0           	Open  	;
 P-494           	J-303           	O-RV-20         	379.2877649 	6           	150         	0           	Open  	;
 P-495           	J-324           	J-169           	4339.221477 	6           	150         	0           	Open  	;
 P-496           	J-53            	J-568           	4713.5804   	6           	150         	0           	Open  	;
 P-497           	J-452           	J-435           	3408.139748 	6           	140         	0           	Open  	;
 P-498           	J-437           	J-117           	99.70422721 	6           	69.091      	0           	Open  	;
 P-499           	J-208           	J-345           	3759.447215 	6           	150         	0           	Open  	;
 P-5             	J-103           	J-11            	4130.97174  	6           	140         	0           	Open  	;
 P-50            	T-5             	J-86            	306.6310145 	6           	140         	0           	Open  	;
 P-500           	J-280           	J-565           	4357.11524  	6           	150         	0           	Open  	;
 P-501           	J-477           	J-316           	1438.337913 	6           	140         	0           	Open  	;
 P-502           	J-150           	J-562           	1221.776909 	6           	140         	0           	Open  	;
 P-503           	J-301           	J-577           	111.4110436 	6           	140         	0           	Open  	;
 P-504           	J-578           	J-332           	2186.063247 	6           	150         	0           	Open  	;
 P-505           	J-579           	J-403           	1419.030222 	6           	140         	0           	Open  	;
 P-506           	J-519           	J-523           	137.9944756 	6           	129.9604    	0           	Open  	;
 P-507           	J-580           	J-581           	208.7195509 	6           	140         	0           	Open  	;
 P-508           	J-185           	J-330           	3501.87209  	6           	122.8135    	0           	Open  	;
 P-509           	J-582           	J-314           	398.5551915 	6           	140         	0           	Open  	;
 P-51            	J-72            	J-17            	1231.922481 	6           	140         	0           	Open  	;
 P-510           	J-562           	J-583           	1878.444753 	6           	140         	0           	Open  	;
 P-511           	J-341           	J-41            	59.54068692 	6           	140         	0           	Open  	;
 P-512           	J-200           	J-581           	112.7991519 	6           	140         	0           	Open  	;
 P-513           	J-518           	J-584           	933.4137622 	6           	129.9604    	0           	Open  	;
 P-514           	J-583           	J-585           	3987.12587  	6           	140         	0           	Open  	;
 P-515           	J-150           	J-21            	3987.642258 	6           	140         	0           	Open  	;
 P-516           	J-582           	J-586           	462.4846764 	6           	140         	0           	Open  	;
 P-517           	J-200           	J-218           	383.1631942 	6           	140         	0           	Open  	;
 P-518           	J-155           	J-249           	376.8829855 	6           	140         	0           	Open  	;
 P-519           	J-587           	J-98            	2416.5154   	6           	140         	0           	Open  	;
 P-52            	J-57            	J-87            	1837.819181 	6           	150         	0           	Open  	;
 P-520           	J-111           	J-452           	233.3612417 	6           	140         	0           	Open  	;
 P-521           	J-588           	J-589           	662.0833791 	6           	144.7356    	0           	Open  	;
 P-522           	J-161           	J-297           	72.29336592 	6           	140         	0           	Open  	;
 P-523           	J-219           	J-307           	2817.316328 	6           	140         	0           	Open  	;
 P-524           	J-214           	J-27            	456.7470277 	6           	128.0722    	0           	Open  	;
 P-525           	J-592           	J-143           	4221.714465 	6           	140         	0           	Open  	;
 P-526           	J-214           	J-593           	184.2479762 	6           	128.0722    	0           	Open  	;
 P-527           	J-279           	J-358           	3021.776933 	6           	150         	0           	Open  	;
 P-528           	J-362           	J-456           	1120.62317  	6           	140         	0           	Open  	;
 P-529           	J-551           	J-586           	1308.002695 	6           	140         	0           	Open  	;
 P-53            	J-12            	J-15            	119.7044624 	6           	144.7356    	0           	Open  	;
 P-530           	J-199           	J-141           	1990.751675 	6           	140         	0           	Open  	;
 P-531           	J-571           	J-407           	98.15405548 	6           	69.091      	0           	Open  	;
 P-532           	J-163           	J-181           	882.2681612 	6           	122.8135    	0           	Open  	;
 P-533           	J-314           	J-423           	75.73595509 	6           	140         	0           	Open  	;
 P-534           	J-122           	J-181           	357.8883487 	6           	122.8135    	0           	Open  	;
 P-535           	J-85            	J-561           	2157.858174 	6           	130.6237    	0           	Open  	;
 P-536           	J-337           	J-377           	638.8106711 	6           	140         	0           	Open  	;
 P-537           	J-298           	J-418           	656.7091149 	6           	131.3043    	0           	Open  	;
 P-538           	J-249           	J-94            	772.5693527 	6           	140         	0           	Open  	;
 P-539           	T-8             	J-80            	517.8580185 	6           	150         	0           	Open  	;
 P-54            	J-90            	J-91            	90.93569089 	6           	69.091      	0           	Open  	;
 P-540           	J-585           	J-508           	19.74959049 	6           	140         	0           	Open  	;
 P-541           	J-147           	J-596           	1213.058703 	6           	140         	0           	Open  	;
 P-542           	J-349           	J-597           	156.5270806 	6           	140         	0           	Open  	;
 P-543           	J-240           	J-180           	742.2000793 	6           	140         	0           	Open  	;
 P-544           	J-315           	J-598           	53.79196565 	6           	131.3043    	0           	Open  	;
 P-545           	J-30            	J-598           	114.5204465 	6           	131.3043    	0           	Open  	;
 P-546           	J-335           	J-344           	4087.066951 	6           	150         	0           	Open  	;
 P-547           	J-449           	O-RV-14         	239.4512021 	6           	140         	0           	Open  	;
 P-548           	J-42            	J-587           	336.8704359 	6           	140         	0           	Open  	;
 P-549           	J-157           	J-5             	229.0620317 	6           	140         	0           	Open  	;
 P-55            	J-92            	J-93            	3905.439872 	6           	150         	0           	Open  	;
 P-550           	J-98            	J-599           	43.30414795 	6           	140         	0           	Open  	;
 P-551           	J-178           	J-429           	5224.837959 	6           	140         	0           	Open  	;
 P-552           	J-600           	I-RV-11         	797.1707794 	6           	140         	0           	Open  	;
 P-553           	J-583           	J-290           	3879.801945 	6           	140         	0           	Open  	;
 P-554           	J-600           	J-498           	4516.582614 	6           	140         	0           	Open  	;
 P-555           	J-596           	J-601           	1854.870063 	6           	140         	0           	Open  	;
 P-556           	J-596           	J-602           	3661.834411 	6           	140         	0           	Open  	;
 P-557           	J-63            	J-215           	327.5996037 	6           	140         	0           	Open  	;
 P-558           	J-313           	J-159           	111.2801849 	6           	69.091      	0           	Open  	;
 P-559           	J-586           	J-476           	113.624568  	6           	140         	0           	Open  	;
 P-56            	J-94            	J-95            	2381.486552 	6           	140         	0           	Open  	;
 P-560           	J-508           	J-251           	3703.964153 	6           	140         	0           	Open  	;
 P-561           	J-603           	J-143           	1636.38745  	6           	140         	0           	Open  	;
 P-562           	J-599           	J-495           	1210.522058 	6           	140         	0           	Open  	;
 P-563           	J-604           	J-454           	3500.624604 	6           	140         	0           	Open  	;
 P-564           	J-605           	J-341           	2981.664729 	6           	140         	0           	Open  	;
 P-565           	J-473           	J-604           	441.9589934 	6           	140         	0           	Open  	;
 P-566           	J-101           	J-606           	2101.427897 	6           	140         	0           	Open  	;
 P-567           	J-255           	J-21            	1046.416248 	6           	140         	0           	Open  	;
 P-568           	J-608           	J-90            	625.5234848 	6           	128.0722    	0           	Open  	;
 P-569           	J-581           	J-610           	293.364967  	6           	140         	0           	Open  	;
 P-57            	J-96            	J-45            	38.0396037  	6           	140         	0           	Open  	;
 P-570           	I-Pump-6        	J-600           	4358.293119 	6           	140         	0           	Open  	;
 P-571           	T-4             	J-476           	598.3058917 	6           	140         	0           	Open  	;
 P-572           	J-598           	J-170           	4616.174605 	6           	131.3043    	0           	Open  	;
 P-573           	J-551           	J-219           	149.4899049 	6           	140         	0           	Open  	;
 P-574           	J-227           	J-612           	634.3020872 	6           	140         	0           	Open  	;
 P-575           	J-495           	J-26            	3587.89424  	6           	140         	0           	Open  	;
 P-576           	J-456           	J-613           	3724.794838 	6           	140         	0           	Open  	;
 P-577           	J-227           	J-614           	563.5377543 	6           	140         	0           	Open  	;
 P-578           	J-615           	J-604           	663.1211889 	6           	140         	0           	Open  	;
 P-58            	J-98            	J-99            	1684.924938 	6           	140         	0           	Open  	;
 P-580           	J-615           	J-375           	1588.753894 	6           	140         	0           	Open  	;
 P-581           	J-380           	J-615           	4390.327166 	6           	140         	0           	Open  	;
 P-582           	J-454           	J-111           	2241.094343 	6           	140         	0           	Open  	;
 P-583           	J-100           	J-617           	1539.319522 	6           	140         	0           	Open  	;
 P-584           	J-375           	J-373           	4375.173734 	6           	140         	0           	Open  	;
 P-585           	J-613           	J-473           	26.61463672 	6           	140         	0           	Open  	;
 P-586           	J-129           	J-618           	347.640103  	6           	140         	0           	Open  	;
 P-587           	J-132           	J-619           	573.0300396 	6           	140         	0           	Open  	;
 P-588           	J-577           	J-380           	3365.49996  	6           	140         	0           	Open  	;
 P-589           	J-531           	J-262           	3527.921015 	6           	150         	0           	Open  	;
 P-59            	J-100           	J-101           	1328.05326  	6           	140         	0           	Open  	;
 P-590           	J-28            	J-25            	1873.966367 	6           	140         	0           	Open  	;
 P-591           	J-33            	J-576           	3525.595757 	6           	128.0722    	0           	Open  	;
 P-592           	I-Pump-12       	J-169           	5697.066914 	6           	150         	0           	Open  	;
 P-593           	J-37            	J-19            	3474.633358 	6           	140         	0           	Open  	;
 P-594           	J-35            	J-33            	1355.413791 	6           	128.0722    	0           	Open  	;
 P-595           	J-410           	J-216           	32.79519155 	6           	128.0722    	0           	Open  	;
 P-596           	J-275           	J-188           	236.1082668 	6           	150         	0           	Open  	;
 P-597           	J-463           	I-RV-28         	5050.735202 	6           	141.8326    	0           	Open  	;
 P-598           	J-283           	O-Pump-11       	3546.263371 	6           	140         	0           	Open  	;
 P-599           	J-536           	J-506           	3841.411036 	6           	141.8326    	0           	Open  	;
 P-6             	J-198           	O-Pump-6        	603.9418732 	6           	140         	0           	Open  	;
 P-60            	J-102           	J-103           	851.6683752 	6           	140         	0           	Open  	;
 P-600           	J-552           	I-Pump-2        	408.0464703 	6           	59.091      	0           	Open  	;
 P-601           	J-575           	J-158           	3395.266579 	6           	140         	0           	Open  	;
 P-602           	J-588           	J-276           	1916.364571 	6           	144.7356    	0           	Open  	;
 P-603           	J-162           	J-148           	232.6566182 	6           	130.6237    	0           	Open  	;
 P-604           	O-RV-3          	J-235           	830.3988111 	6           	140         	0           	Open  	;
 P-605           	O-Pump-5        	J-264           	4703.669216 	6           	150         	0           	Open  	;
 P-606           	J-217           	J-538           	5.404462351 	6           	128.0722    	0           	Open  	;
 P-607           	J-538           	J-229           	30.8413712  	6           	128.0722    	0           	Open  	;
 P-608           	J-38            	J-217           	192.9651757 	6           	140         	0           	Open  	;
 P-609           	J-39            	J-248           	152.6113871 	6           	129.9604    	0           	Open  	;
 P-61            	J-104           	J-105           	1847.432259 	6           	150         	0           	Open  	;
 P-610           	J-40            	J-542           	3417.404843 	6           	140         	0           	Open  	;
 P-611           	J-469           	J-419           	241.7764597 	6           	140         	0           	Open  	;
 P-612           	J-408           	J-43            	17.19180713 	6           	59.091      	0           	Open  	;
 P-613           	J-44            	J-96            	135.870539  	6           	140         	0           	Open  	;
 P-614           	J-45            	J-74            	162.9492206 	6           	140         	0           	Open  	;
 P-615           	J-516           	J-74            	894.5386764 	6           	140         	0           	Open  	;
 P-616           	J-113           	J-45            	6.87410568  	6           	140         	0           	Open  	;
 P-617           	J-78a           	J-69            	3315.504203 	6           	130.6237    	0           	Open  	;
 P-618           	J-46            	J-406           	4316.843137 	6           	140         	0           	Open  	;
 P-619           	J-78            	J-46            	622.7160634 	6           	140         	0           	Open  	;
 P-62            	J-38            	J-39            	4173.672227 	6           	140         	0           	Open  	;
 P-620           	J-82            	J-292           	1192.664885 	6           	140         	0           	Open  	;
 P-621           	J-119           	J-82            	22.02351123 	6           	140         	0           	Open  	;
 P-622           	J-85            	J-82            	107.1027741 	6           	140         	0           	Open  	;
 P-623           	J-530           	J-97            	2277.031149 	6           	128.0722    	0           	Open  	;
 P-624           	J-88            	J-47            	3397.471044 	6           	130.6237    	0           	Open  	;
 P-625           	J-88            	J-106           	107.9775139 	6           	130.6237    	0           	Open  	;
 P-626           	J-107           	J-399           	971.7452814 	6           	140         	0           	Open  	;
 P-627           	J-97            	J-47            	316.7987318 	6           	140         	0           	Open  	;
 P-628           	J-117           	J-544           	32.91598415 	6           	69.091      	0           	Open  	;
 P-629           	J-144           	J-116           	109.0153236 	6           	140         	0           	Open  	;
 P-63            	J-108           	J-109           	3511.876435 	6           	140         	0           	Open  	;
 P-630           	J-199           	J-73            	314.9254399 	6           	140         	0           	Open  	;
 P-631           	J-20            	O-Pump-8        	1057.98214  	6           	140         	0           	Open  	;
 P-632           	J-183           	J-27            	559.2888745 	6           	86.1445     	0           	Open  	;
 P-633           	J-191           	J-472           	1374.860394 	6           	140         	0           	Open  	;
 P-634           	J-118           	J-422           	31.97984148 	6           	140         	0           	Open  	;
 P-635           	J-322           	O-Pump-3        	1219.14967  	6           	140         	0           	Open  	;
 P-636           	I-Pump-3        	R-2             	1352.976801 	6           	140         	0           	Open  	;
 P-637           	O-RV-4          	J-166           	773.6152153 	6           	150         	0           	Open  	;
 P-638           	I-RV-5          	J-236           	6530.58902  	6           	150         	0           	Open  	;
 P-639           	O-RV-6          	J-154           	430.8863382 	6           	150         	0           	Open  	;
 P-64            	J-110           	J-111           	3022.613421 	6           	140         	0           	Open  	;
 P-640           	I-RV-7          	J-87            	4405.519856 	6           	150         	0           	Open  	;
 P-641           	O-RV-8          	J-395           	612.5191546 	6           	150         	0           	Open  	;
 P-642           	I-RV-9          	J-231           	3504.477888 	6           	150         	0           	Open  	;
 P-643           	O-RV-10         	J-414           	481.9121532 	6           	150         	0           	Open  	;
 P-644           	O-RV-11         	J-152           	343.4133686 	6           	140         	0           	Open  	;
 P-645           	O-RV-12         	J-230           	1651.395931 	6           	140         	0           	Open  	;
 P-646           	O-RV-13         	J-221           	2932.66219  	6           	122.8135    	0           	Open  	;
 P-647           	I-RV-14         	J-371           	65.80177015 	6           	140         	0           	Open  	;
 P-648           	O-RV-15         	J-521           	213.0368798 	6           	129.9604    	0           	Open  	;
 P-649           	O-RV-16         	J-570           	339.9909115 	6           	129.9604    	0           	Open  	;
 P-65            	O-RV-1          	J-492           	789.7722325 	6           	150         	0           	Open  	;
 P-650           	O-RV-17         	J-453           	236.4404465 	6           	140         	0           	Open  	;
 P-651           	O-RV-18         	J-465           	177.6255218 	6           	150         	0           	Open  	;
 P-652           	I-RV-19         	J-301           	1963.010647 	6           	140         	0           	Open  	;
 P-653           	I-RV-20         	J-208           	4768.679946 	6           	150         	0           	Open  	;
 P-654           	O-RV-21         	J-532           	332.1192602 	6           	150         	0           	Open  	;
 P-655           	O-RV-22         	J-591           	602.6836169 	6           	144.7356    	0           	Open  	;
 P-656           	O-RV-23         	J-500           	585.2300925 	6           	140         	0           	Open  	;
 P-657           	O-RV-24         	J-510           	784.8891915 	6           	140         	0           	Open  	;
 P-658           	O-Pump-13       	J-207           	3350.316329 	6           	150         	0           	Open  	;
 P-659           	O-RV-25         	J-2             	1423.862933 	6           	150         	0           	Open  	;
 P-66            	J-113           	J-118           	1175.311015 	6           	59.091      	0           	Open  	;
 P-660           	O-RV-26         	J-252           	837.0514637 	6           	140         	0           	Open  	;
 P-661           	O-RV-27         	J-394           	1044.824806 	6           	140         	0           	Open  	;
 P-662           	O-RV-28         	J-536           	166.1703567 	6           	141.8326    	0           	Open  	;
 P-67            	J-115           	J-144           	275.1041453 	6           	140         	0           	Open  	;
 P-68            	J-45            	J-191           	727.9767503 	6           	59.091      	0           	Open  	;
 P-69            	J-119           	J-120           	3661.142874 	6           	150         	0           	Open  	;
 P-7             	J-13            	J-14            	3717.54396  	6           	140         	0           	Open  	;
 P-70            	J-121           	J-106           	341.3699604 	6           	66.1358     	0           	Open  	;
 P-71            	J-122           	J-123           	1504.371202 	6           	122.8135    	0           	Open  	;
 P-72            	J-108           	J-124           	4577.333743 	6           	140         	0           	Open  	;
 P-73            	J-65            	J-125           	3844.717431 	6           	140         	0           	Open  	;
 P-74            	J-126           	J-127           	4187.593273 	6           	150         	0           	Open  	;
 P-75            	J-128           	J-129           	464.7998679 	6           	140         	0           	Open  	;
 P-76            	J-125           	J-130           	540.4965654 	6           	140         	0           	Open  	;
 P-77            	J-79            	J-70            	4141.45382  	6           	120         	0           	Open  	;
 P-78            	J-131           	J-90            	1110.113207 	6           	59.091      	0           	Open  	;
 P-79            	I-Pump-8        	J-132           	300.8541083 	6           	140         	0           	Open  	;
 P-8             	J-11            	J-198           	325.1626129 	6           	140         	0           	Open  	;
 P-80            	J-133           	J-134           	790.1950066 	6           	140         	0           	Open  	;
 P-81            	J-75            	J-135           	82.47114927 	6           	140         	0           	Open  	;
 P-82            	J-136           	J-137           	1000.936827 	6           	120         	0           	Open  	;
 P-83            	J-138           	J-139           	927.5653871 	6           	140         	0           	Open  	;
 P-84            	J-109           	J-140           	4870.612142 	6           	140         	0           	Open  	;
 P-85            	J-141           	J-138           	118.7592602 	6           	140         	0           	Open  	;
 P-86            	J-70            	J-142           	3559.257333 	6           	120         	0           	Open  	;
 P-87            	J-143           	J-8             	3032.597937 	6           	140         	0           	Open  	;
 P-88            	J-135           	J-29            	3706.932329 	6           	140         	0           	Open  	;
 P-89            	J-5             	J-371           	824.369247  	6           	140         	0           	Open  	;
 P-9             	J-16            	J-17            	807.7290594 	6           	140         	0           	Open  	;
 P-90            	J-146           	J-75            	711.0245152 	6           	140         	0           	Open  	;
 P-91            	J-147           	J-148           	3430.863857 	6           	140         	0           	Open  	;
 P-92            	J-149           	J-146           	75.40478203 	6           	140         	0           	Open  	;
 P-93            	J-150           	J-9             	4145.497051 	6           	140         	0           	Open  	;
 P-94            	J-76            	J-151           	1012.502719 	6           	140         	0           	Open  	;
 P-95            	J-152           	J-153           	835.2506473 	6           	140         	0           	Open  	;
 P-96            	J-87            	I-RV-6          	4711.816828 	6           	150         	0           	Open  	;
 P-97            	J-155           	J-156           	885.0967213 	6           	140         	0           	Open  	;
 P-98            	J-157           	J-158           	144.8796539 	6           	140         	0           	Open  	;
 P-99            	J-134           	J-108           	4298.899245 	6           	140         	0           	Open  	;
 P-I-Pump-4      	Real_I-Pump-4   	I-Pump-4        	10          	6           	100         	0           	Open  	;
 P-I-Pump-8      	I-Pump-8        	Real_I-Pump-8   	10          	6           	100         	0           	Open  	;
 P-O-Pump-4      	Real_O-Pump-4   	O-Pump-4        	10          	6           	100         	0           	Open  	;
 P-RV-1          	O-RV-1          	I-RV-1          	10          	6           	100         	0           	Open  	;
 P-RV-10         	I-RV-10         	O-RV-10         	10          	6           	100         	0           	Open  	;
 P-RV-11         	I-RV-11         	O-RV-11         	10          	6           	100         	0           	Open  	;
 P-RV-12         	O-RV-12         	I-RV-12         	10          	6           	100         	0           	Open  	;
 P-RV-13         	O-RV-13         	I-RV-13         	10          	6           	100         	0           	Open  	;
 P-RV-14         	O-RV-14         	I-RV-14         	10          	6           	100         	0           	Open  	;
 P-RV-15         	O-RV-15         	I-RV-15         	10          	6           	100         	0           	Open  	;
 P-RV-16         	O-RV-16         	I-RV-16         	10          	6           	100         	0           	Open  	;
 P-RV-17         	I-RV-17         	O-RV-17         	10          	6           	100         	0           	Open  	;
 P-RV-18         	I-RV-18         	O-RV-18         	10          	6           	100         	0           	Open  	;
 P-RV-19         	O-RV-19         	I-RV-19         	10          	6           	100         	0           	Open  	;
 P-RV-2          	O-RV-2          	I-RV-2          	10          	6           	100         	0           	Open  	;
 P-RV-22         	O-RV-22         	I-RV-22         	10          	6           	100         	0           	Open  	;
 P-RV-23         	O-RV-23         	I-RV-23         	10          	6           	100         	0           	Open  	;
 P-RV-25         	O-RV-25         	I-RV-25         	10          	6           	100         	0           	Open  	;
 P-RV-26         	I-RV-26         	O-RV-26         	10          	6           	100         	0           	Open  	;
 P-RV-28         	O-RV-28         	I-RV-28         	10          	6           	100         	0           	Open  	;
 P-RV-3          	I-RV-3          	O-RV-3          	10          	6           	100         	0           	Open  	;
 P-RV-4          	O-RV-4          	I-RV-4          	10          	6           	100         	0           	Open  	;
 P-RV-5          	I-RV-5          	O-RV-5          	10          	6           	100         	0           	Open  	;
 P-RV-6          	I-RV-6          	O-RV-6          	10          	6           	100         	0           	Open  	;
 P-RV-7          	O-RV-7          	I-RV-7          	10          	6           	100         	0           	Open  	;
 P-RV-8          	O-RV-8          	I-RV-8          	10          	6           	100         	0           	Open  	;
 P-RV-21         	O-RV-21         	I-RV-21         	10          	6           	100         	0           	Open  	;
 P-RV-20         	I-RV-20         	O-RV-20         	10          	6           	100         	0           	Open  	;
 P-RV-24         	I-RV-24         	O-RV-24         	10          	6           	100         	0           	Open  	;

[PUMPS]
;ID              	Node1           	Node2           	Parameters
 ~@Pump-10       	I-Pump-10       	O-Pump-10       	HEAD 10	;
 ~@Pump-11       	I-Pump-11       	O-Pump-11       	HEAD 11	;
 ~@Pump-12       	I-Pump-12       	O-Pump-12       	HEAD 12	;
 ~@Pump-13       	I-Pump-13       	O-Pump-13       	HEAD 13	;
 ~@Pump-2        	I-Pump-2        	O-Pump-2        	HEAD 2	;
 ~@Pump-3        	I-Pump-3        	O-Pump-3        	HEAD 3	;
 ~@Pump-4        	Real_I-Pump-4   	Real_O-Pump-4   	HEAD 4	;
 ~@Pump-5        	I-Pump-5        	O-Pump-5        	HEAD 5	;
 ~@Pump-6        	I-Pump-6        	O-Pump-6        	HEAD 6	;
 ~@Pump-7        	I-Pump-7        	O-Pump-7        	HEAD 7	;
 ~@Pump-8        	Real_I-Pump-8   	O-Pump-8        	HEAD 8	;
 ~@Pump-9        	I-Pump-9        	O-Pump-9        	HEAD 9	;

[VALVES]
;ID              	Node1           	Node2           	Diameter    	Type	Setting     	MinorLoss   
 ~@RV-9          	I-RV-9          	O-RV-9          	6           	PRV 	69.99       	0           	;
 RV-27           	I-RV-27         	O-RV-27         	6           	PRV 	55          	0           	;

[TAGS]

[DEMANDS]
;Junction        	Demand      	Pattern         	Category

[STATUS]
;ID              	Status/Setting

[PATTERNS]
;ID              	Multipliers
;
 11              	0.33        	0.25        	0.209       	0.209       	0.259       	0.36        
 11              	0.529       	0.91        	1.2         	1.299       	1.34        	1.34        
 11              	1.32        	1.269       	1.25        	1.25        	1.279       	1.37        
 11              	1.519       	1.7         	1.75        	1.669       	0.899       	0.479       
;
 ENRG1           	1           	1           	1           	1           	1           	1           
 ENRG1           	1           	1           	1           	1           	1           	1           
 ENRG1           	1           	1           	1           	1           	1           	1           
 ENRG1           	1           	1           	1           	1           	1           

[CURVES]
;ID              	X-Value     	Y-Value
;PUMP: PUMP: PUMP: PUMP: PUMP: PUMP: PUMP: 
 2               	1           	151         
 2               	659.3       	150.01      
 2               	1300        	149         
;PUMP: PUMP: PUMP: PUMP: PUMP: PUMP: PUMP: 
 3               	1           	209         
 3               	457.83      	207.84      
 3               	900         	206.6       
;PUMP: PUMP: PUMP: PUMP: PUMP: PUMP: PUMP: 
 4               	1           	117         
 4               	1363.48     	116.06      
 4               	2700        	115         
;PUMP: PUMP: PUMP: PUMP: PUMP: PUMP: PUMP: 
 5               	1           	788         
 5               	301.65      	786.87      
 5               	602         	785.6       
;PUMP: PUMP: PUMP: PUMP: PUMP: PUMP: PUMP: 
 6               	1           	297         
 6               	200.07      	296.6       
 6               	400         	296         
;PUMP: PUMP: PUMP: PUMP: PUMP: PUMP: PUMP: 
 7               	1           	82          
 7               	195.14      	81.09       
 7               	390         	80          
;PUMP: PUMP: PUMP: PUMP: PUMP: PUMP: PUMP: 
 8               	1           	130         
 8               	1124.52     	129.23      
 8               	2250        	128.4       
;PUMP: PUMP: PUMP: PUMP: PUMP: PUMP: PUMP: 
 9               	1           	175         
 9               	1179.71     	174.37      
 9               	2360        	173.5       
;PUMP: PUMP: PUMP: PUMP: PUMP: PUMP: PUMP: 
 10              	1           	702         
 10              	107.18      	701.28      
 10              	214         	700.5       
;PUMP: PUMP: PUMP: PUMP: PUMP: PUMP: PUMP: 
 11              	1           	105         
 11              	304.39      	103.97      
 11              	608         	103         
;PUMP: PUMP: PUMP: PUMP: PUMP: PUMP: PUMP: 
 12              	1           	202         
 12              	196.86      	200.96      
 12              	390         	200         
;PUMP: PUMP: PUMP: PUMP: PUMP: PUMP: PUMP: 
 13              	1           	40.5        
 13              	98.19       	40.29       
 13              	196         	40          

[CONTROLS]
LINK ~@Pump-3  OPEN  IF NODE T-1           BELOW  68.189 
LINK ~@Pump-3 1  IF NODE T-1               BELOW  68.189 
LINK ~@Pump-3  CLOSED  IF NODE T-1         ABOVE  86.189 
LINK ~@Pump-2  OPEN  IF NODE T-5           BELOW  121.617 
LINK ~@Pump-2 0.75  IF NODE T-5            BELOW  121.617 
LINK ~@Pump-2  CLOSED  IF NODE T-5         ABOVE  140.617 
LINK ~@Pump-8  OPEN  IF NODE T-3           BELOW  114.809 
LINK ~@Pump-8  CLOSED  IF NODE T-3         ABOVE  140.809 
LINK ~@Pump-7  OPEN  IF NODE T-2           BELOW  46.208 
LINK ~@Pump-7  CLOSED  IF NODE T-2         ABOVE  62.208 
LINK ~@Pump-6  OPEN  IF NODE T-7           BELOW  26.897 
LINK ~@Pump-6  CLOSED  IF NODE T-7         ABOVE  52.897 
LINK ~@Pump-9  OPEN  IF NODE T-6           BELOW  17.689 
LINK ~@Pump-9  CLOSED  IF NODE T-6         ABOVE  36.689 










[RULES]










[ENERGY]
 Global Efficiency  	75
 Global Price       	0
 Global Pattern     	ENRG1
 Demand Charge      	0

[EMITTERS]
;Junction        	Coefficient

[QUALITY]
;Node            	InitQual

[SOURCES]
;Node            	Type        	Quality     	Pattern

[REACTIONS]
;Type     	Pipe/Tank       	Coefficient


[REACTIONS]
 Order Bulk            	0
 Order Tank            	0
 Order Wall            	0
 Global Bulk           	0
 Global Wall           	0
 Limiting Potential    	0
 Roughness Correlation 	0

[MIXING]
;Tank            	Model

[TIMES]
 Duration           	0:00 
 Hydraulic Timestep 	0:01 
 Quality Timestep   	0:01 
 Pattern Timestep   	1:00 
 Pattern Start      	0:00 
 Report Timestep    	1:00 
 Report Start       	0:00 
 Start ClockTime    	12 am
 Statistic          	NONE

[REPORT]
 Status             	Full
 Summary            	No
 Page               	0

[OPTIONS]
 Units              	GPM
 Headloss           	H-W
 Specific Gravity   	1
 Viscosity          	1
 Trials             	100
 Accuracy           	0.0001
 CHECKFREQ          	2
 MAXCHECK           	10
 DAMPLIMIT          	0
 Unbalanced         	Continue 10
 Pattern            	11
 Demand Multiplier  	1.0
 Emitter Exponent   	0.5
 Quality            	Chemical mg/L
 Diffusivity        	0.05
 Tolerance          	0.0001

[COORDINATES]
;Node            	X-Coord           	Y-Coord
J-1             	5517100.570       	3638786.000       
J-10            	5533439.080       	3558186.000       
J-100           	5509007.490       	3567729.000       
J-101           	5508476.540       	3566532.000       
J-102           	5533574.180       	3573533.000       
J-103           	5534169.610       	3572932.000       
J-104           	5530458.310       	3544307.000       
J-105           	5528798.130       	3543714.000       
J-106           	5501609.590       	3585671.000       
J-107           	5502544.160       	3589084.000       
J-108           	5489205.850       	3552320.000       
J-109           	5487557.150       	3548839.000       
J-11            	5529954.230       	3569178.000       
J-110           	5515711.870       	3613243.000       
J-111           	5518161.720       	3612127.000       
J-113           	5501159.760       	3584464.000       
J-114           	5498274.920       	3585601.000       
J-115           	5501213.740       	3585726.000       
J-116           	5501558.040       	3585562.000       
J-117           	5500608.200       	3585754.000       
J-118           	5501711.000       	3585494.000       
J-119           	5504336.650       	3590254.000       
J-12            	5520077.720       	3563068.000       
J-120           	5506806.290       	3592924.000       
J-121           	5501762.940       	3585973.000       
J-122           	5497749.460       	3573780.000       
J-123           	5498955.230       	3572897.000       
J-124           	5482085.500       	3552353.000       
J-125           	5557670.330       	3589454.000       
J-126           	5549542.450       	3620149.000       
J-127           	5545715.150       	3622565.000       
J-128           	5500271.730       	3588511.000       
J-129           	5500656.260       	3588445.000       
J-13            	5497678.320       	3595558.000       
J-130           	5558077.740       	3589803.000       
J-131           	5500888.280       	3586450.000       
J-132           	5501868.710       	3585946.000       
J-133           	5495049.870       	3556282.000       
J-134           	5494336.420       	3555962.000       
J-135           	5503231.250       	3576359.000       
J-136           	5560247.190       	3566676.000       
J-137           	5560992.760       	3566591.000       
J-138           	5502171.760       	3589612.000       
J-139           	5502884.640       	3590175.000       
J-14            	5493483.490       	3595407.000       
J-140           	5485262.470       	3539234.000       
J-141           	5502234.770       	3589512.000       
J-142           	5562266.620       	3574242.000       
J-143           	5510026.860       	3578816.000       
J-144           	5501460.330       	3585608.000       
J-145           	5543171.080       	3548311.000       
J-146           	5503856.120       	3575979.000       
J-147           	5512756.950       	3609999.000       
J-148           	5516203.080       	3608981.000       
J-149           	5503904.110       	3576036.000       
J-15            	5520166.010       	3562988.000       
J-150           	5509537.710       	3572656.000       
J-151           	5502411.130       	3574816.000       
J-152           	5529494.370       	3564857.000       
J-153           	5530318.680       	3564815.000       
J-154           	5514354.450       	3537737.000       
J-155           	5499226.720       	3588421.000       
J-156           	5499960.850       	3588027.000       
J-157           	5498803.610       	3580062.000       
J-158           	5498865.840       	3580191.000       
J-159           	5501446.230       	3586754.000       
J-16            	5503363.240       	3591700.000       
J-160           	5501282.320       	3586366.000       
J-161           	5473924.910       	3564230.000       
J-162           	5516226.300       	3608751.000       
J-163           	5497153.570       	3574265.000       
J-164           	5495030.520       	3578956.000       
J-165           	5528456.050       	3582758.000       
J-166           	5527157.200       	3585405.000       
J-167           	5555359.280       	3620986.000       
J-168           	5556227.110       	3623395.000       
J-169           	5543958.650       	3604913.000       
J-17            	5503363.190       	3590934.000       
J-170           	5476661.140       	3565794.000       
J-171           	5475717.970       	3568282.000       
J-173           	5561411.080       	3607268.000       
J-174           	5502825.010       	3570541.000       
J-175           	5501851.340       	3570049.000       
J-176           	5494330.700       	3574318.000       
J-177           	5493313.280       	3577727.000       
J-178           	5536214.360       	3573246.000       
J-179           	5500619.140       	3584007.000       
J-18            	5502758.690       	3566026.000       
J-180           	5500385.480       	3582747.000       
J-181           	5497454.740       	3573585.000       
J-182           	5497239.760       	3572531.000       
J-183           	5500420.230       	3581082.000       
J-184           	5506038.570       	3586967.000       
J-185           	5498547.750       	3575681.000       
J-186           	5499017.810       	3575564.000       
J-187           	5534810.520       	3612335.000       
J-188           	5535572.650       	3612867.000       
J-189           	5560237.700       	3566715.000       
J-19            	5501080.360       	3562187.000       
J-190           	5555013.240       	3563987.000       
J-191           	5501080.000       	3583749.000       
J-192           	5501229.740       	3583765.000       
J-193           	5486891.240       	3586775.000       
J-194           	5557714.340       	3589441.000       
J-195           	5558110.760       	3589781.000       
J-196           	5499765.080       	3581361.000       
J-197           	5499879.550       	3581458.000       
J-198           	5529650.500       	3569068.000       
J-199           	5500809.060       	3588313.000       
J-2             	5509656.220       	3635551.000       
J-20            	5502647.420       	3586164.000       
J-200           	5503542.390       	3590236.000       
J-201           	5493419.480       	3570099.000       
J-202           	5494496.410       	3570532.000       
J-203           	5520880.570       	3532086.000       
J-204           	5519815.740       	3536821.000       
J-205           	5567020.610       	3568855.000       
J-206           	5537826.730       	3613661.000       
J-207           	5537816.770       	3613985.000       
J-208           	5539930.610       	3630480.000       
J-209           	5542861.190       	3631204.000       
J-21            	5509043.850       	3567790.000       
J-210           	5482647.480       	3588226.000       
J-211           	5504010.660       	3568305.000       
J-212           	5499144.690       	3582772.000       
J-213           	5521333.860       	3544146.000       
J-214           	5500823.800       	3580619.000       
J-215           	5503284.260       	3589724.000       
J-216           	5497710.640       	3586973.000       
J-217           	5497410.430       	3586743.000       
J-218           	5503789.460       	3589947.000       
J-219           	5499315.620       	3587822.000       
J-22            	5512410.860       	3627096.000       
J-220           	5493400.360       	3574475.000       
J-221           	5483634.050       	3579209.000       
J-222           	5561883.720       	3590320.000       
J-223           	5557495.610       	3589315.000       
J-224           	5556805.680       	3589037.000       
J-226           	5500853.210       	3585758.000       
J-227           	5502075.220       	3589736.000       
J-228           	5498392.260       	3585292.000       
J-229           	5497445.830       	3586736.000       
J-23            	5524801.360       	3633621.000       
J-230           	5536138.240       	3567370.000       
J-231           	5543899.840       	3521946.000       
J-232           	5541588.130       	3520047.000       
J-233           	5531792.820       	3548120.000       
J-234           	5523458.750       	3575545.000       
J-235           	5525042.090       	3574498.000       
J-236           	5534320.380       	3611072.000       
J-237           	5521984.800       	3544592.000       
J-239           	5499595.950       	3582722.000       
J-24            	5503413.690       	3591001.000       
J-240           	5499671.970       	3582682.000       
J-241           	5482971.540       	3567246.000       
J-242           	5475297.210       	3555215.000       
J-243           	5550741.870       	3620370.000       
J-244           	5497531.410       	3594576.000       
J-245           	5553564.750       	3620973.000       
J-246           	5496756.690       	3588165.000       
J-247           	5497961.850       	3587786.000       
J-248           	5492679.090       	3587134.000       
J-249           	5499041.460       	3588746.000       
J-25            	5505360.210       	3592057.000       
J-250           	5498642.240       	3588273.000       
J-251           	5521991.800       	3574206.000       
J-252           	5524549.670       	3570349.000       
J-253           	5499485.450       	3582756.000       
J-254           	5511962.950       	3569331.000       
J-255           	5509957.230       	3568235.000       
J-256           	5526617.690       	3549474.000       
J-257           	5524717.080       	3546746.000       
J-258           	5498730.340       	3586934.000       
J-259           	5498728.150       	3586620.000       
J-26            	5526143.210       	3622933.000       
J-260           	5518016.820       	3649008.000       
J-261           	5520357.020       	3652840.000       
J-262           	5537556.040       	3618853.000       
J-263           	5541551.640       	3550712.000       
J-264           	5542693.070       	3551885.000       
J-265           	5543632.130       	3545171.000       
J-266           	5543694.020       	3546931.000       
J-267           	5524373.170       	3642338.000       
J-268           	5521787.760       	3644489.000       
J-269           	5526507.280       	3638343.000       
J-27            	5500379.280       	3580528.000       
J-270           	5500881.050       	3586371.000       
J-271           	5540770.070       	3583914.000       
J-272           	5541808.630       	3582947.000       
J-273           	5505775.230       	3556827.000       
J-274           	5504774.880       	3557025.000       
J-275           	5535338.330       	3612864.000       
J-276           	5533679.030       	3612238.000       
J-277           	5500073.780       	3562339.000       
J-278           	5567975.040       	3615726.000       
J-279           	5566318.740       	3617466.000       
J-28            	5503726.170       	3591166.000       
J-280           	5532013.630       	3537848.000       
J-281           	5543275.220       	3530828.000       
J-282           	5524128.470       	3558143.000       
J-283           	5530294.870       	3558621.000       
J-284           	5526694.180       	3616643.000       
J-286           	5498605.770       	3585278.000       
J-287           	5498826.760       	3585355.000       
J-288           	5540837.550       	3582252.000       
J-289           	5564163.600       	3563646.000       
J-29            	5500267.020       	3579541.000       
J-290           	5515857.340       	3568427.000       
J-291           	5516108.480       	3565180.000       
J-292           	5505511.260       	3590012.000       
J-294           	5499484.520       	3586326.000       
J-295           	5499609.530       	3586281.000       
J-296           	5546440.530       	3594590.000       
J-297           	5473995.670       	3564218.000       
J-298           	5474109.940       	3563149.000       
J-299           	5533238.300       	3630485.000       
J-3             	5552020.950       	3620164.000       
J-30            	5483773.590       	3569149.000       
J-300           	5521250.730       	3560397.000       
J-301           	5526173.800       	3620784.000       
J-302           	5544855.340       	3622739.000       
J-303           	5542574.310       	3622689.000       
J-304           	5498730.060       	3587018.000       
J-305           	5498740.320       	3587019.000       
J-306           	5509787.270       	3615010.000       
J-307           	5496779.100       	3587591.000       
J-308           	5496429.390       	3587405.000       
J-309           	5495957.180       	3583311.000       
J-31            	5484788.350       	3588030.000       
J-310           	5496117.340       	3583698.000       
J-311           	5549093.890       	3596241.000       
J-313           	5501452.200       	3586864.000       
J-314           	5500943.680       	3586885.000       
J-315           	5483726.880       	3569003.000       
J-316           	5505199.140       	3577998.000       
J-317           	5505190.160       	3577961.000       
J-318           	5486868.540       	3569847.000       
J-32            	5500352.060       	3580186.000       
J-320           	5509586.390       	3611781.000       
J-321           	5526663.210       	3581662.000       
J-322           	5471624.630       	3562938.000       
J-324           	5549146.320       	3600911.000       
J-325           	5565703.010       	3620805.000       
J-326           	5564024.950       	3622638.000       
J-327           	5539998.770       	3527306.000       
J-328           	5546982.660       	3517591.000       
J-33            	5494328.390       	3584265.000       
J-330           	5499919.550       	3579352.000       
J-331           	5557024.820       	3578067.000       
J-332           	5550386.550       	3535763.000       
J-333           	5545999.610       	3540822.000       
J-334           	5524151.280       	3555127.000       
J-335           	5526587.330       	3549904.000       
J-336           	5546657.390       	3584419.000       
J-337           	5508784.210       	3612365.000       
J-338           	5519143.370       	3647483.000       
J-339           	5498158.710       	3587155.000       
J-34            	5543618.960       	3542639.000       
J-340           	5491033.600       	3573162.000       
J-341           	5505074.990       	3577592.000       
J-342           	5566626.690       	3620258.000       
J-343           	5561802.930       	3621736.000       
J-344           	5531488.260       	3548513.000       
J-345           	5535673.340       	3631647.000       
J-346           	5549986.700       	3534069.000       
J-347           	5560519.770       	3620467.000       
J-348           	5500391.380       	3586001.000       
J-349           	5499630.190       	3586654.000       
J-35            	5495364.930       	3583440.000       
J-350           	5499983.140       	3585948.000       
J-351           	5502128.770       	3572310.000       
J-352           	5558063.950       	3619674.000       
J-353           	5557522.000       	3619444.000       
J-354           	5558694.030       	3620321.000       
J-355           	5561622.550       	3559614.000       
J-356           	5499318.320       	3587122.000       
J-357           	5525137.160       	3586263.000       
J-358           	5566763.490       	3620140.000       
J-359           	5530665.710       	3566596.000       
J-36            	5507145.910       	3559195.000       
J-361           	5491663.410       	3567232.000       
J-362           	5525649.290       	3615290.000       
J-363           	5501913.600       	3585401.000       
J-364           	5502116.520       	3585690.000       
J-365           	5494611.300       	3588504.000       
J-366           	5568077.230       	3615556.000       
J-367           	5488162.970       	3563431.000       
J-368           	5498354.440       	3558618.000       
J-369           	5498907.240       	3557437.000       
J-37            	5502825.210       	3565397.000       
J-370           	5488800.880       	3574720.000       
J-371           	5497801.830       	3580138.000       
J-372           	5497928.450       	3579640.000       
J-373           	5513015.370       	3617748.000       
J-374           	5513315.370       	3618712.000       
J-375           	5519202.480       	3615899.000       
J-376           	5517807.480       	3619575.000       
J-377           	5508811.870       	3611760.000       
J-378           	5509608.040       	3610199.000       
J-379           	5497570.530       	3594784.000       
J-38            	5497562.620       	3586859.000       
J-380           	5525189.590       	3617780.000       
J-381           	5520979.000       	3618757.000       
J-382           	5500709.930       	3587807.000       
J-384           	5515613.280       	3563946.000       
J-385           	5514812.490       	3564941.000       
J-386           	5516617.900       	3560825.000       
J-387           	5556615.980       	3588841.000       
J-388           	5495921.930       	3573620.000       
J-389           	5498170.440       	3584559.000       
J-39            	5492615.630       	3586997.000       
J-390           	5498324.670       	3584651.000       
J-391           	5506889.680       	3610411.000       
J-392           	5531682.050       	3536346.000       
J-393           	5532088.870       	3532553.000       
J-394           	5495099.690       	3549218.000       
J-395           	5532350.680       	3524138.000       
J-396           	5533556.770       	3522283.000       
J-397           	5498679.130       	3584855.000       
J-399           	5502428.150       	3588171.000       
J-4             	5552176.020       	3616400.000       
J-40            	5500913.410       	3583564.000       
J-400           	5501321.360       	3584371.000       
J-401           	5498778.170       	3586623.000       
J-402           	5503184.380       	3569156.000       
J-403           	5502714.580       	3566417.000       
J-404           	5497055.190       	3558318.000       
J-405           	5501879.600       	3585417.000       
J-406           	5514455.770       	3591847.000       
J-407           	5500876.640       	3586058.000       
J-408           	5501557.010       	3584268.000       
J-409           	5499318.460       	3587545.000       
J-41            	5505044.020       	3577542.000       
J-410           	5497717.020       	3587005.000       
J-411           	5498219.290       	3587066.000       
J-412           	5557973.660       	3589256.000       
J-413           	5559498.970       	3588329.000       
J-414           	5551966.060       	3533220.000       
J-415           	5556609.820       	3532378.000       
J-416           	5557606.540       	3588727.000       
J-417           	5528601.540       	3564142.000       
J-418           	5474703.680       	3563231.000       
J-419           	5501583.340       	3584234.000       
J-42            	5531693.180       	3627973.000       
J-421           	5500881.800       	3585444.000       
J-422           	5501740.070       	3585481.000       
J-423           	5500953.940       	3586810.000       
J-424           	5531792.710       	3537532.000       
J-425           	5530763.490       	3530836.000       
J-426           	5523682.470       	3544221.000       
J-427           	5531926.180       	3537717.000       
J-428           	5523650.690       	3586452.000       
J-429           	5544789.250       	3582004.000       
J-43            	5501547.720       	3584254.000       
J-430           	5532336.520       	3628545.000       
J-431           	5499399.890       	3586836.000       
J-432           	5521721.670       	3562566.000       
J-433           	5522188.260       	3563203.000       
J-434           	5525146.350       	3581851.000       
J-435           	5516341.510       	3609019.000       
J-436           	5523623.390       	3563880.000       
J-437           	5500706.210       	3585767.000       
J-438           	5507390.680       	3604762.000       
J-44            	5501308.920       	3584378.000       
J-440           	5533583.260       	3560414.000       
J-441           	5523290.250       	3636503.000       
J-442           	5520448.440       	3639360.000       
J-444           	5564258.290       	3624984.000       
J-445           	5530660.320       	3560760.000       
J-446           	5484378.760       	3547770.000       
J-447           	5499327.340       	3587021.000       
J-448           	5497367.920       	3580658.000       
J-449           	5497633.500       	3580387.000       
J-45            	5501156.150       	3584458.000       
J-450           	5501113.560       	3586368.000       
J-451           	5501080.140       	3586115.000       
J-452           	5517958.500       	3612024.000       
J-453           	5523569.940       	3605334.000       
J-454           	5520095.770       	3611239.000       
J-455           	5520762.590       	3610998.000       
J-456           	5524561.560       	3615100.000       
J-457           	5526429.890       	3613085.000       
J-458           	5522841.410       	3583167.000       
J-46            	5508599.590       	3589135.000       
J-460           	5497294.260       	3580279.000       
J-461           	5544257.870       	3618082.000       
J-462           	5544259.170       	3614409.000       
J-463           	5506094.750       	3556806.000       
J-464           	5545983.850       	3630793.000       
J-465           	5555188.750       	3631710.000       
J-466           	5516442.900       	3569252.000       
J-467           	5501448.510       	3572216.000       
J-469           	5501796.840       	3584124.000       
J-47            	5502631.680       	3588960.000       
J-470           	5528499.980       	3543275.000       
J-472           	5501936.130       	3583327.000       
J-473           	5520662.070       	3614795.000       
J-474           	5520120.090       	3611909.000       
J-476           	5500669.450       	3587704.000       
J-477           	5505446.790       	3579390.000       
J-478           	5506647.840       	3579390.000       
J-479           	5508032.040       	3564577.000       
J-48            	5521498.840       	3559816.000       
J-480           	5501266.090       	3568027.000       
J-481           	5501373.850       	3573683.000       
J-482           	5494634.080       	3580635.000       
J-484           	5499632.380       	3582069.000       
J-485           	5553899.890       	3587952.000       
J-486           	5546654.660       	3582562.000       
J-488           	5524990.310       	3621546.000       
J-49            	5506368.320       	3613675.000       
J-490           	5536459.020       	3589018.000       
J-491           	5515340.990       	3635243.000       
J-492           	5509547.920       	3632391.000       
J-493           	5533907.950       	3521640.000       
J-494           	5494344.420       	3556861.000       
J-495           	5528466.430       	3625959.000       
J-496           	5524113.760       	3627217.000       
J-497           	5496643.520       	3587896.000       
J-498           	5521794.890       	3560845.000       
J-499           	5522045.520       	3561322.000       
J-5             	5498618.830       	3580195.000       
J-50            	5508745.830       	3612818.000       
J-500           	5523377.470       	3565411.000       
J-501           	5527260.410       	3647082.000       
J-502           	5522183.800       	3635289.000       
J-503           	5518260.770       	3629697.000       
J-504           	5531945.160       	3586173.000       
J-505           	5530956.840       	3586266.000       
J-506           	5506309.270       	3542455.000       
J-507           	5524483.420       	3543628.000       
J-508           	5517831.640       	3573334.000       
J-509           	5519545.850       	3570837.000       
J-51            	5538130.390       	3621234.000       
J-510           	5525765.460       	3564869.000       
J-511           	5514131.360       	3534491.000       
J-512           	5501815.850       	3583452.000       
J-513           	5532018.690       	3565992.000       
J-514           	5522080.010       	3621559.000       
J-516           	5500913.980       	3583667.000       
J-517           	5500426.710       	3581325.000       
J-518           	5488963.500       	3589924.000       
J-519           	5489957.700       	3591227.000       
J-52            	5538104.600       	3621349.000       
J-520           	5493065.690       	3587670.000       
J-521           	5492084.620       	3587890.000       
J-522           	5505713.570       	3580254.000       
J-523           	5489994.730       	3591096.000       
J-524           	5489873.140       	3590493.000       
J-525           	5498895.720       	3582621.000       
J-526           	5493187.920       	3585065.000       
J-527           	5492669.610       	3584131.000       
J-528           	5489689.110       	3589608.000       
J-53            	5543836.760       	3605063.000       
J-530           	5504585.600       	3589541.000       
J-531           	5534887.960       	3617161.000       
J-532           	5548388.100       	3609614.000       
J-533           	5511621.680       	3618329.000       
J-534           	5510995.040       	3570685.000       
J-535           	5564897.160       	3591708.000       
J-536           	5505945.290       	3547048.000       
J-537           	5500062.820       	3540944.000       
J-538           	5497415.720       	3586742.000       
J-539           	5497236.220       	3586797.000       
J-54            	5543911.510       	3605124.000       
J-540           	5553081.600       	3622365.000       
J-542           	5504035.650       	3582675.000       
J-543           	5501457.910       	3586973.000       
J-544           	5500585.200       	3585777.000       
J-545           	5499318.440       	3587573.000       
J-547           	5508697.120       	3590773.000       
J-548           	5491228.700       	3588452.000       
J-55            	5561725.040       	3569202.000       
J-551           	5499317.160       	3587673.000       
J-552           	5498548.480       	3585651.000       
J-554           	5491924.070       	3588089.000       
J-555           	5491166.400       	3587673.000       
J-556           	5549992.410       	3590066.000       
J-557           	5551577.640       	3581947.000       
J-558           	5562130.200       	3559275.000       
J-559           	5550388.270       	3581761.000       
J-56            	5561878.590       	3569034.000       
J-561           	5502622.650       	3589010.000       
J-562           	5510722.090       	3572395.000       
J-563           	5511508.180       	3573083.000       
J-564           	5492629.480       	3585640.000       
J-565           	5536664.940       	3535067.000       
J-566           	5556460.140       	3589111.000       
J-568           	5537182.870       	3607722.000       
J-57            	5521761.100       	3544302.000       
J-570           	5493305.350       	3589101.000       
J-571           	5500878.110       	3586155.000       
J-574           	5510144.580       	3586517.000       
J-575           	5495984.950       	3582306.000       
J-576           	5492915.930       	3581919.000       
J-577           	5526217.080       	3620682.000       
J-578           	5549769.880       	3534290.000       
J-579           	5501832.550       	3566338.000       
J-58            	5521708.570       	3544368.000       
J-580           	5503504.080       	3590456.000       
J-581           	5503636.620       	3590297.000       
J-582           	5500887.070       	3587277.000       
J-583           	5512550.490       	3572086.000       
J-584           	5488310.860       	3589434.000       
J-585           	5517812.360       	3573330.000       
J-586           	5500588.470       	3587626.000       
J-587           	5531450.990       	3627742.000       
J-588           	5535089.790       	3613230.000       
J-589           	5535327.050       	3613825.000       
J-59            	5521575.470       	3544710.000       
J-591           	5523324.040       	3567959.000       
J-592           	5515550.930       	3581182.000       
J-593           	5500759.510       	3580790.000       
J-596           	5513025.230       	3608854.000       
J-597           	5499523.220       	3586546.000       
J-598           	5483711.610       	3569054.000       
J-599           	5529583.320       	3626405.000       
J-6             	5550064.560       	3600663.000       
J-60            	5551985.460       	3590128.000       
J-600           	5528474.890       	3564700.000       
J-601           	5512521.810       	3607594.000       
J-602           	5509468.830       	3606277.000       
J-603           	5510105.190       	3580435.000       
J-604           	5520375.060       	3614821.000       
J-605           	5502727.560       	3578964.000       
J-606           	5506501.210       	3566519.000       
J-608           	5499897.230       	3586731.000       
J-61            	5550566.080       	3587767.000       
J-610           	5503825.180       	3590075.000       
J-612           	5502414.110       	3590181.000       
J-613           	5520670.320       	3614770.000       
J-614           	5501551.000       	3589540.000       
J-615           	5520667.150       	3615408.000       
J-617           	5507750.510       	3568430.000       
J-618           	5500539.450       	3588658.000       
J-619           	5502230.600       	3586376.000       
J-62            	5502353.820       	3589359.000       
J-63            	5503052.950       	3589953.000       
J-64            	5552219.440       	3589374.000       
J-65            	5553223.620       	3590579.000       
J-66            	5507051.740       	3594055.000       
J-67            	5506563.610       	3600185.000       
J-68            	5501651.550       	3585520.000       
J-69            	5500267.910       	3581789.000       
J-7             	5504928.200       	3575851.000       
J-70            	5558592.820       	3572978.000       
J-71            	5558295.760       	3574061.000       
J-72            	5504206.670       	3590180.000       
J-73            	5500766.370       	3588003.000       
J-74            	5501013.050       	3584534.000       
J-75            	5503289.270       	3576302.000       
J-76            	5503350.390       	3574849.000       
J-77            	5503797.400       	3591062.000       
J-78            	5508059.410       	3589356.000       
J-78a           	5500948.560       	3584748.000       
J-79            	5561848.960       	3569471.000       
J-8             	5507299.480       	3578005.000       
J-80            	5543601.420       	3542696.000       
J-82            	5504352.670       	3590239.000       
J-83            	5493226.960       	3587675.000       
J-84            	5493463.320       	3588280.000       
J-85            	5504251.530       	3590206.000       
J-86            	5499296.660       	3585827.000       
J-87            	5521437.260       	3542644.000       
J-88            	5501502.310       	3585671.000       
J-89            	5526809.840       	3637179.000       
J-9             	5504631.540       	3575450.000       
J-90            	5500432.170       	3586416.000       
J-91            	5500413.810       	3586328.000       
J-92            	5540094.170       	3529462.000       
J-93            	5538466.710       	3533998.000       
J-94            	5498592.500       	3589184.000       
J-95            	5496513.850       	3589804.000       
J-96            	5501189.560       	3584441.000       
J-97            	5502823.260       	3588711.000       
J-98            	5529622.320       	3626423.000       
J-99            	5530715.570       	3625568.000       
I-Pump-10       	5532118.230       	3548522.000       
O-Pump-11       	5526463.680       	3557735.000       
O-Pump-12       	5537893.070       	3592620.000       
I-Pump-13       	5540680.620       	3612454.000       
O-Pump-2        	5498948.160       	3585719.000       
O-Pump-3        	5470414.550       	3562887.000       
I-Pump-4        	5500282.740       	3581767.910       
O-Pump-5        	5538696.590       	3558355.000       
O-Pump-6        	5529264.110       	3568609.000       
O-Pump-7        	5525920.040       	3621712.000       
O-Pump-8        	5501797.790       	3585681.070       
I-Pump-9        	5498885.700       	3583230.000       
I-RV-1          	5510592.220       	3631881.180       
I-RV-10         	5551543.510       	3533593.650       
I-RV-11         	5529147.350       	3564767.600       
I-RV-12         	5536645.410       	3569215.200       
I-RV-13         	5485371.230       	3577170.970       
I-RV-14         	5497836.560       	3580217.720       
I-RV-15         	5492320.970       	3587785.130       
I-RV-16         	5493351.040       	3588779.130       
I-RV-17         	5523518.950       	3605744.770       
I-RV-18         	5554798.310       	3631703.650       
O-RV-19         	5524968.080       	3621209.120       
I-RV-2          	5525911.970       	3581755.430       
O-RV-20         	5542306.935       	3622714.376       
I-RV-21         	5548298.122       	3609251.358       
I-RV-22         	5522910.530       	3567399.170       
I-RV-23         	5523676.610       	3564880.870       
I-RV-24         	5525304.418       	3564041.987       
I-RV-25         	5510963.940       	3636271.460       
I-RV-26         	5524336.350       	3571260.550       
I-RV-27         	5494165.420       	3549495.670       
I-RV-28         	5506231.530       	3547265.650       
I-RV-3          	5524508.340       	3575164.460       
I-RV-4          	5527363.690       	3584640.360       
O-RV-5          	5525745.530       	3586682.010       
I-RV-6          	5514629.280       	3538361.190       
O-RV-7          	5519713.060       	3537264.540       
I-RV-8          	5532142.320       	3524765.010       
O-RV-9          	5545811.520       	3518740.000       
O-Pump-1        	5515811.170       	3591584.000       
O-Pump-10       	5532118.230       	3548522.000       
I-Pump-11       	5526463.680       	3557735.000       
I-Pump-12       	5537893.070       	3592620.000       
O-Pump-13       	5540680.620       	3612454.000       
I-Pump-2        	5498948.160       	3585719.000       
I-Pump-3        	5470414.550       	3562887.000       
O-Pump-4        	5500261.870       	3581727.000       
I-Pump-5        	5538696.590       	3558355.000       
I-Pump-6        	5529264.110       	3568609.000       
I-Pump-7        	5525920.040       	3621712.000       
I-Pump-8        	5501733.020       	3585680.000       
O-Pump-9        	5498885.700       	3583230.000       
O-RV-1          	5510266.260       	3632105.000       
O-RV-10         	5551501.780       	3533273.000       
O-RV-11         	5529215.430       	3564661.000       
O-RV-12         	5536204.050       	3568968.000       
O-RV-13         	5485378.830       	3577310.000       
O-RV-14         	5497781.040       	3580200.000       
O-RV-15         	5492227.210       	3587736.000       
O-RV-16         	5493273.900       	3588884.000       
O-RV-17         	5523475.870       	3605550.000       
O-RV-18         	5555035.970       	3631684.000       
I-RV-19         	5525212.180       	3621193.000       
O-RV-2          	5525624.340       	3581804.000       
I-RV-20         	5542278.250       	3622913.000       
O-RV-21         	5548289.190       	3609301.000       
O-RV-22         	5522896.870       	3567549.000       
O-RV-23         	5523656.120       	3564902.000       
O-RV-24         	5525445.650       	3564159.000       
O-RV-25         	5510701.260       	3636370.000       
O-RV-26         	5524335.720       	3571138.000       
O-RV-27         	5494165.260       	3549482.000       
O-RV-28         	5506064.520       	3547162.000       
O-RV-3          	5524440.150       	3575062.000       
O-RV-4          	5527179.400       	3584690.000       
I-RV-5          	5525593.280       	3586770.000       
O-RV-6          	5514520.850       	3538129.000       
I-RV-7          	5519879.120       	3537326.000       
O-RV-8          	5532013.760       	3524629.000       
I-RV-9          	5545811.520       	3518740.000       
Real_I-Pump-4   	5500265.640       	3581766.060       
Real_I-Pump-8   	5501755.260       	3585681.990       
Real_O-Pump-4   	5500251.770       	3581741.330       
R-2             	5469174.090       	3562369.000       
T-1             	5474022.000       	3564383.000       
T-2             	5525489.040       	3624388.000       
T-3             	5504275.410       	3585629.000       
T-4             	5501063.500       	3587639.000       
T-5             	5499428.100       	3586052.000       
T-6             	5498628.450       	3583415.000       
T-7             	5528344.610       	3570374.000       
T-8             	5544108.560       	3542783.000       

[VERTICES]
;Link            	X-Coord           	Y-Coord
P-283           	5494250.840       	3552722.000       
P-283           	5494208.050       	3551102.000       

[LABELS]
;X-Coord             Y-Coord             Label & Anchor Node

[BACKDROP]
  DIMENSIONS  	5464228.930       	3510828.550       	5573022.390       	3659602.450       
 UNITS          	None
 FILE           	
 OFFSET         	0.00            	0.00            

[END]
